
     Program PWSCF v.7.5 starts on  5Sep2026 at 23:29:46 

     This program is part of the open-source Quantum ESPRESSO suite
     for quantum simulation of materials; please cite
         "P. Giannozzi et al., J. Phys.:Condens. Matter 21 395502 (2009);
         "P. Giannozzi et al., J. Phys.:Condens. Matter 29 465901 (2017);
         "P. Giannozzi et al., J. Chem. Phys. 152 154105 (2020);
          URL http://www.quantum-espresso.org", 
     in publications or presentations arising from this work. More details at
     http://www.quantum-espresso.org/quote

     Parallel version (MPI & OpenMP), running on      24 processor cores
     Number of MPI processes:                 1
     Threads/MPI process:                    24

     MPI processes distributed on     1 nodes
     13262 MiB available memory on the printing compute node when the environment starts

     Waiting for input...
     Reading input from standard input
Warning: card &CELL ignored

     Current dimensions of program PWSCF are:
     Max number of different atomic species (ntypx) = 10
     Max number of k-points (npk) =  40000
     Max angular momentum in pseudopotentials (lmaxx) =  4
     file Hf.pbe-spn-kjpaw_psl.1.0.0.UPF: wavefunction(s)  5P renormalized
     Message from routine setup:
     using ibrav=0 with symmetry is DISCOURAGED, use correct ibrav instead

     Subspace diagonalization in iterative solution of the eigenvalue problem:
     a serial algorithm will be used


     G-vector sticks info
     --------------------
     sticks:   dense  smooth     PW     G-vecs:    dense   smooth      PW
     Sum         967     499    151                38933    13837    2333

     Using Slab Decomposition



     bravais-lattice index     =            0
     lattice parameter (alat)  =       5.9526  a.u.
     unit-cell volume          =     288.6131 (a.u.)^3
     number of atoms/cell      =            2
     number of atomic types    =            1
     number of electrons       =        24.00
     number of Kohn-Sham states=           16
     kinetic-energy cutoff     =      50.0000  Ry
     charge density cutoff     =     400.0000  Ry
     scf convergence threshold =      1.0E-08
     mixing beta               =       0.7000
     number of iterations used =            8  plain     mixing
     Exchange-correlation= SLA  PW   PBX  PBC
                           (   1   4   3   4   0   0   0)

     celldm(1)=   5.952637  celldm(2)=   0.000000  celldm(3)=   0.000000
     celldm(4)=   0.000000  celldm(5)=   0.000000  celldm(6)=   0.000000

     crystal axes: (cart. coord. in units of alat)
               a(1) = (   1.000000   0.000000   0.000000 )  
               a(2) = (  -0.500000   0.866025   0.000000 )  
               a(3) = (   0.000000   0.000000   1.580000 )  

     reciprocal axes: (cart. coord. in units 2 pi/alat)
               b(1) = (  1.000000  0.577350 -0.000000 )  
               b(2) = (  0.000000  1.154701  0.000000 )  
               b(3) = (  0.000000 -0.000000  0.632911 )  


     PseudoPot. # 1 for Hf read from file:
     ../pseudo/Hf.pbe-spn-kjpaw_psl.1.0.0.UPF
     MD5 check sum: bf8a91e620b6303fe4cf956cf37905ef
     Pseudo is Projector augmented-wave + core cor, Zval = 12.0
     Generated using &quot;atomic&quot; code by A. Dal Corso  v.6.2.2
     Shape of augmentation charge: PSQ
     Using radial grid of 1271 points,  6 beta functions with: 
                l(1) =   0
                l(2) =   0
                l(3) =   1
                l(4) =   1
                l(5) =   2
                l(6) =   2
     Q(r) pseudized with 0 coefficients 


     atomic species   valence    mass     pseudopotential
     Hf               12.00   178.49000     Hf( 1.00)

     24 Sym. Ops., with inversion, found (12 have fractional translation)



   Cartesian axes

     site n.     atom                  positions (alat units)
         1        Hf     tau(   1) = (   0.0000000   0.0000000   0.0000000  )
         2        Hf     tau(   2) = (   0.0000000   0.5773503   0.7900000  )

     number of k points=    40  Marzari-Vanderbilt smearing, width (Ry)=  0.0200
                       cart. coord. in units 2pi/alat
        k(    1) = (   0.0000000   0.0000000   0.0000000), wk =   0.0052083
        k(    2) = (   0.0000000   0.0000000   0.1054852), wk =   0.0104167
        k(    3) = (   0.0000000   0.0000000   0.2109705), wk =   0.0104167
        k(    4) = (   0.0000000   0.0000000  -0.3164557), wk =   0.0052083
        k(    5) = (   0.0000000   0.1443376   0.0000000), wk =   0.0312500
        k(    6) = (   0.0000000   0.1443376   0.1054852), wk =   0.0625000
        k(    7) = (   0.0000000   0.1443376   0.2109705), wk =   0.0625000
        k(    8) = (   0.0000000   0.1443376  -0.3164557), wk =   0.0312500
        k(    9) = (   0.0000000   0.2886751   0.0000000), wk =   0.0312500
        k(   10) = (   0.0000000   0.2886751   0.1054852), wk =   0.0625000
        k(   11) = (   0.0000000   0.2886751   0.2109705), wk =   0.0625000
        k(   12) = (   0.0000000   0.2886751  -0.3164557), wk =   0.0312500
        k(   13) = (   0.0000000   0.4330127   0.0000000), wk =   0.0312500
        k(   14) = (   0.0000000   0.4330127   0.1054852), wk =   0.0625000
        k(   15) = (   0.0000000   0.4330127   0.2109705), wk =   0.0625000
        k(   16) = (   0.0000000   0.4330127  -0.3164557), wk =   0.0312500
        k(   17) = (   0.0000000  -0.5773503   0.0000000), wk =   0.0156250
        k(   18) = (   0.0000000  -0.5773503   0.1054852), wk =   0.0312500
        k(   19) = (   0.0000000  -0.5773503   0.2109705), wk =   0.0312500
        k(   20) = (   0.0000000  -0.5773503  -0.3164557), wk =   0.0156250
        k(   21) = (   0.1250000   0.2165064   0.0000000), wk =   0.0312500
        k(   22) = (   0.1250000   0.2165064   0.1054852), wk =   0.0625000
        k(   23) = (   0.1250000   0.2165064   0.2109705), wk =   0.0625000
        k(   24) = (   0.1250000   0.2165064  -0.3164557), wk =   0.0312500
        k(   25) = (   0.1250000   0.3608439   0.0000000), wk =   0.0625000
        k(   26) = (   0.1250000   0.3608439   0.1054852), wk =   0.1250000
        k(   27) = (   0.1250000   0.3608439   0.2109705), wk =   0.1250000
        k(   28) = (   0.1250000   0.3608439  -0.3164557), wk =   0.0625000
        k(   29) = (   0.1250000   0.5051815   0.0000000), wk =   0.0625000
        k(   30) = (   0.1250000   0.5051815   0.1054852), wk =   0.1250000
        k(   31) = (   0.1250000   0.5051815   0.2109705), wk =   0.1250000
        k(   32) = (   0.1250000   0.5051815  -0.3164557), wk =   0.0625000
        k(   33) = (   0.2500000   0.4330127   0.0000000), wk =   0.0312500
        k(   34) = (   0.2500000   0.4330127   0.1054852), wk =   0.0625000
        k(   35) = (   0.2500000   0.4330127   0.2109705), wk =   0.0625000
        k(   36) = (   0.2500000   0.4330127  -0.3164557), wk =   0.0312500
        k(   37) = (   0.2500000   0.5773503   0.0000000), wk =   0.0312500
        k(   38) = (   0.2500000   0.5773503   0.1054852), wk =   0.0625000
        k(   39) = (   0.2500000   0.5773503   0.2109705), wk =   0.0625000
        k(   40) = (   0.2500000   0.5773503  -0.3164557), wk =   0.0312500

     Dense  grid:    38933 G-vectors     FFT dimensions: (  45,  45,  60)

     Smooth grid:    13837 G-vectors     FFT dimensions: (  27,  27,  48)

     Estimated max dynamical RAM per process >     163.55 MB

     Initial potential from superposition of free atoms

     starting charge      23.9961, renormalised to      24.0000
     Starting wfcs are   20 randomized atomic wfcs
     Checking if some PAW data can be deallocated... 

     total cpu time spent up to now is        3.3 secs

     per-process dynamical memory:    51.6 Mb

     Self-consistent Calculation

     iteration #  1     ecut=    50.00 Ry     beta= 0.70
     Davidson diagonalization with overlap
     ethr =  1.00E-02,  avg # of iterations =  2.5

     Threshold (ethr) on eigenvalues was too large:
     Diagonalizing with lowered threshold

     Davidson diagonalization with overlap
     ethr =  1.27E-04,  avg # of iterations =  3.6

     total cpu time spent up to now is       12.5 secs

     total energy              =   -1392.43019274 Ry
     estimated scf accuracy    <       0.03843691 Ry

     iteration #  2     ecut=    50.00 Ry     beta= 0.70
     Davidson diagonalization with overlap
     ethr =  1.60E-04,  avg # of iterations =  2.0

     total cpu time spent up to now is       17.2 secs

     total energy              =   -1392.43490761 Ry
     estimated scf accuracy    <       0.00104705 Ry

     iteration #  3     ecut=    50.00 Ry     beta= 0.70
     Davidson diagonalization with overlap
     ethr =  4.36E-06,  avg # of iterations =  3.5

     total cpu time spent up to now is       22.0 secs

     total energy              =   -1392.43500410 Ry
     estimated scf accuracy    <       0.00005170 Ry

     iteration #  4     ecut=    50.00 Ry     beta= 0.70
     Davidson diagonalization with overlap
     ethr =  2.15E-07,  avg # of iterations =  3.6

     total cpu time spent up to now is       27.5 secs

     total energy              =   -1392.43501604 Ry
     estimated scf accuracy    <       0.00000041 Ry

     iteration #  5     ecut=    50.00 Ry     beta= 0.70
     Davidson diagonalization with overlap
     ethr =  1.69E-09,  avg # of iterations =  4.6

     total cpu time spent up to now is       33.1 secs

     total energy              =   -1392.43501647 Ry
     estimated scf accuracy    <       0.00000004 Ry

     iteration #  6     ecut=    50.00 Ry     beta= 0.70
     Davidson diagonalization with overlap
     ethr =  1.50E-10,  avg # of iterations =  2.3

     total cpu time spent up to now is       37.8 secs

     End of self-consistent calculation

          k = 0.0000 0.0000 0.0000 (  1725 PWs)   bands (ev):

   -46.3926 -46.3047 -15.6030 -14.7450 -14.7450 -14.5964 -14.5964 -14.5908
     7.8891  11.5727  16.1941  16.6046  16.6046  16.9175  17.4791  17.4791

          k = 0.0000 0.0000 0.1055 (  1743 PWs)   bands (ev):

   -46.3868 -46.3107 -15.5400 -14.7352 -14.7352 -14.6641 -14.6068 -14.6068
     8.1574  11.4520  15.8264  16.4753  16.4753  16.6809  17.2629  17.2629

          k = 0.0000 0.0000 0.2110 (  1737 PWs)   bands (ev):

   -46.3708 -46.3268 -15.3641 -14.8595 -14.7082 -14.7082 -14.6342 -14.6342
     8.9057  10.9281  15.3866  16.1075  16.3716  16.3716  16.8367  16.8367

          k = 0.0000 0.0000-0.3165 (  1690 PWs)   bands (ev):

   -46.3488 -46.3488 -15.1161 -15.1161 -14.6709 -14.6709 -14.6709 -14.6709
     9.9494   9.9494  15.5392  15.5392  16.4945  16.4945  16.4945  16.4946

          k = 0.0000 0.1443 0.0000 (  1739 PWs)   bands (ev):

   -46.3833 -46.3013 -15.5566 -14.8427 -14.7774 -14.6988 -14.6129 -14.6099
     8.3775  12.0406  15.5535  15.6991  16.9562  17.0637  17.6039  17.6083

          k = 0.0000 0.1443 0.1055 (  1732 PWs)   bands (ev):

   -46.3778 -46.3068 -15.5021 -14.8289 -14.7663 -14.7553 -14.6321 -14.6212
     8.6322  11.9253  15.1527  15.7413  16.7560  16.8359  17.0717  17.6073

          k = 0.0000 0.1443 0.2110 (  1732 PWs)   bands (ev):

   -46.3629 -46.3219 -15.3507 -14.9201 -14.7867 -14.7359 -14.6765 -14.6521
     9.3482  11.3741  14.8389  15.8053  16.0447  16.7024  16.7809  17.1911

          k = 0.0000 0.1443-0.3165 (  1718 PWs)   bands (ev):

   -46.3424 -46.3424 -15.1381 -15.1381 -14.7325 -14.7325 -14.6940 -14.6940
    10.3695  10.3695  15.1706  15.1706  16.3113  16.3113  16.8370  16.8370

          k = 0.0000 0.2887 0.0000 (  1732 PWs)   bands (ev):

   -46.3595 -46.2940 -15.4317 -15.0785 -14.9320 -14.8512 -14.6781 -14.6448
     9.6657  12.9465  14.3337  14.8051  16.2193  16.9390  16.9570  18.3861

          k = 0.0000 0.2887 0.1055 (  1731 PWs)   bands (ev):

   -46.3552 -46.2984 -15.4129 -15.0486 -14.9753 -14.8376 -14.6857 -14.6589
     9.8639  12.8752  14.0790  14.8884  16.1055  16.8404  17.0125  18.4686

          k = 0.0000 0.2887 0.2110 (  1721 PWs)   bands (ev):

   -46.3432 -46.3105 -15.3511 -15.1163 -14.9301 -14.8003 -14.7293 -14.6972
    10.4332  12.2575  14.1259  15.0202  15.7533  16.5097  17.2211  18.1374

          k = 0.0000 0.2887-0.3165 (  1708 PWs)   bands (ev):

   -46.3269 -46.3269 -15.2455 -15.2455 -14.8188 -14.8188 -14.7489 -14.7489
    11.2912  11.2912  14.6446  14.6446  15.9577  15.9577  17.6169  17.6169

          k = 0.0000 0.4330 0.0000 (  1716 PWs)   bands (ev):

   -46.3327 -46.2897 -15.3125 -15.2709 -15.1496 -14.9207 -14.7785 -14.6825
    11.1885  12.8433  13.3878  14.6630  16.3983  16.4921  16.6696  20.3447

          k = 0.0000 0.4330 0.1055 (  1719 PWs)   bands (ev):

   -46.3299 -46.2926 -15.4010 -15.2223 -15.1207 -14.9052 -14.7649 -14.6989
    11.2164  12.7953  13.5241  14.5960  16.2815  16.5968  16.7857  20.2000

          k = 0.0000 0.4330 0.2110 (  1717 PWs)   bands (ev):

   -46.3220 -46.3005 -15.4428 -15.3239 -14.9667 -14.8622 -14.7702 -14.7432
    11.3931  12.4034  13.8989  14.6686  16.1201  16.5778  17.1760  19.1981

          k = 0.0000 0.4330-0.3165 (  1724 PWs)   bands (ev):

   -46.3113 -46.3113 -15.4122 -15.4122 -14.8383 -14.8383 -14.8032 -14.8032
    11.8165  11.8165  14.4348  14.4348  16.2410  16.2410  18.0820  18.0820

          k = 0.0000-0.5774 0.0000 (  1742 PWs)   bands (ev):

   -46.3192 -46.2903 -15.4088 -15.2364 -15.1759 -14.9490 -14.8485 -14.6990
    11.9880  12.5033  13.0453  14.6676  16.1985  16.3374  17.1891  21.6160

          k = 0.0000-0.5774 0.1055 (  1708 PWs)   bands (ev):

   -46.3173 -46.2922 -15.4606 -15.2963 -15.0880 -14.9322 -14.8191 -14.7159
    11.7503  12.5202  13.5825  14.2583  16.4218  16.7128  16.9178  21.1065

          k = 0.0000-0.5774 0.2110 (  1728 PWs)   bands (ev):

   -46.3120 -46.2976 -15.5075 -15.4070 -14.9454 -14.8876 -14.7955 -14.7625
    11.6301  12.3149  14.0194  14.3503  16.4765  17.0054  17.0803  19.5353

          k = 0.0000-0.5774-0.3165 (  1732 PWs)   bands (ev):

   -46.3048 -46.3048 -15.4890 -15.4890 -14.8365 -14.8365 -14.8255 -14.8255
    11.8675  11.8675  14.3507  14.3507  16.6978  16.6978  18.1396  18.1396

          k = 0.1250 0.2165 0.0000 (  1731 PWs)   bands (ev):

   -46.3667 -46.2960 -15.4707 -14.9765 -14.9255 -14.7822 -14.6565 -14.6558
     9.2770  12.8250  14.6965  14.8558  16.3712  16.7192  17.5107  18.0288

          k = 0.1250 0.2165 0.1055 (  1726 PWs)   bands (ev):

   -46.3620 -46.3007 -15.4368 -14.9503 -14.9477 -14.8074 -14.6686 -14.6606
     9.4990  12.7319  14.3480  14.9426  16.4173  16.6300  17.1889  18.0603

          k = 0.1250 0.2165 0.2110 (  1722 PWs)   bands (ev):

   -46.3491 -46.3137 -15.3407 -15.0512 -14.8817 -14.8081 -14.7022 -14.6959
    10.1321  12.0999  14.2728  15.1317  15.8316  16.4899  17.1440  17.7610

          k = 0.1250 0.2165-0.3165 (  1722 PWs)   bands (ev):

   -46.3314 -46.3314 -15.2011 -15.2011 -14.8071 -14.8071 -14.7338 -14.7338
    11.0721  11.0721  14.7661  14.7661  15.9459  15.9459  17.4023  17.4023

          k = 0.1250 0.3608 0.0000 (  1732 PWs)   bands (ev):

   -46.3411 -46.2905 -15.3249 -15.1942 -15.0987 -14.8970 -14.7423 -14.7184
    10.7673  13.3979  13.7385  14.3720  16.0924  16.2037  16.9407  19.0411

          k = 0.1250 0.3608 0.1055 (  1722 PWs)   bands (ev):

   -46.3378 -46.2939 -15.3627 -15.1693 -15.0746 -14.9088 -14.7466 -14.7124
    10.8963  13.3282  13.6529  14.4915  15.8680  16.5035  16.7221  18.9396

          k = 0.1250 0.3608 0.2110 (  1719 PWs)   bands (ev):

   -46.3285 -46.3032 -15.3783 -15.2448 -14.9622 -14.8895 -14.7801 -14.7181
    11.2830  12.6729  14.0225  14.7046  15.6215  16.1728  17.0367  18.5612

          k = 0.1250 0.3608-0.3165 (  1718 PWs)   bands (ev):

   -46.3158 -46.3158 -15.3334 -15.3334 -14.8839 -14.8839 -14.7690 -14.7690
    11.9063  11.9063  14.5556  14.5556  15.6579  15.6579  17.7953  17.7953

          k = 0.1250 0.5052 0.0000 (  1724 PWs)   bands (ev):

   -46.3193 -46.2903 -15.3577 -15.1962 -15.1776 -14.9883 -14.8464 -14.7587
    12.0991  12.9816  13.1551  14.4492  15.9540  16.3631  17.0781  20.5436

          k = 0.1250 0.5052 0.1055 (  1725 PWs)   bands (ev):

   -46.3174 -46.2922 -15.4103 -15.2626 -15.0980 -14.9626 -14.8304 -14.7573
    11.9617  12.9627  13.5231  14.3128  15.9619  16.3458  17.0951  20.3033

          k = 0.1250 0.5052 0.2110 (  1723 PWs)   bands (ev):

   -46.3120 -46.2975 -15.4589 -15.3674 -15.0109 -14.8894 -14.8428 -14.7441
    11.9219  12.6757  13.9790  14.6283  15.6682  16.2320  17.4193  19.1886

          k = 0.1250 0.5052-0.3165 (  1728 PWs)   bands (ev):

   -46.3048 -46.3048 -15.4442 -15.4442 -14.9359 -14.9359 -14.7749 -14.7749
    12.1915  12.1915  14.5372  14.5372  15.8299  15.8299  18.1144  18.1144

          k = 0.2500 0.4330 0.0000 (  1715 PWs)   bands (ev):

   -46.3194 -46.2902 -15.2706 -15.1927 -15.1797 -14.9982 -14.8471 -14.8443
    12.2648  13.2837  13.7826  13.9523  15.6739  16.4216  16.7847  19.7632

          k = 0.2500 0.4330 0.1055 (  1720 PWs)   bands (ev):

   -46.3174 -46.2921 -15.3136 -15.2829 -15.0466 -15.0383 -14.8587 -14.7889
    12.2932  13.1745  13.8613  14.1886  15.7078  15.9794  16.8299  19.6536

          k = 0.2500 0.4330 0.2110 (  1720 PWs)   bands (ev):

   -46.3121 -46.2975 -15.3846 -15.3353 -15.0588 -14.9664 -14.8365 -14.7400
    12.4099  12.9419  14.1263  14.6666  15.2864  15.6229  16.9984  18.7769

          k = 0.2500 0.4330-0.3165 (  1726 PWs)   bands (ev):

   -46.3048 -46.3048 -15.3872 -15.3872 -15.0122 -15.0122 -14.7597 -14.7597
    12.6482  12.6482  14.5728  14.5728  15.2774  15.2774  17.6508  17.6508

          k = 0.2500 0.5774 0.0000 (  1716 PWs)   bands (ev):

   -46.3062 -46.2942 -15.3123 -15.1462 -15.1080 -15.0714 -14.9346 -14.9080
    13.1104  13.1308  13.6363  14.0143  15.7300  15.9773  17.4414  20.6469

          k = 0.2500 0.5774 0.1055 (  1722 PWs)   bands (ev):

   -46.3054 -46.2950 -15.3333 -15.2254 -15.1772 -14.9491 -14.9452 -14.8454
    12.8704  13.5584  13.7218  13.8872  15.6291  15.7905  17.4317  20.4353

          k = 0.2500 0.5774 0.2110 (  1721 PWs)   bands (ev):

   -46.3032 -46.2972 -15.3852 -15.3347 -15.1541 -15.0066 -14.8193 -14.7657
    12.8359  13.4400  14.0805  14.1141  15.3390  15.4717  17.5343  19.0003

          k = 0.2500 0.5774-0.3165 (  1728 PWs)   bands (ev):

   -46.3002 -46.3002 -15.3939 -15.3939 -15.0837 -15.0837 -14.7529 -14.7529
    13.0431  13.0431  14.3890  14.3890  15.1874  15.1874  17.9948  17.9948

     the Fermi energy is    15.3948 ev

!    total energy              =   -1392.43501648 Ry
     total all-electron energy =    -60313.959387 Ry
     estimated scf accuracy    <          1.9E-09 Ry
     smearing contrib. (-TS)   =      -0.00006359 Ry
     internal energy E=F+TS    =   -1392.43495288 Ry

     The total energy is F=E-TS. E is the sum of the following terms:
     one-electron contribution =     -29.64811940 Ry
     hartree contribution      =      27.16238173 Ry
     xc contribution           =     -82.95328271 Ry
     ewald contribution        =    -158.55598722 Ry
     one-center paw contrib.   =   -1148.43994528 Ry

     convergence has been achieved in   6 iterations

     Forces acting on atoms (cartesian axes, Ry/au):

     atom    1 type  1   force =     0.00000000    0.00000000    0.00000000
     atom    2 type  1   force =     0.00000000   -0.00000000    0.00000000

     Total force =     0.000000     Total SCF correction =     0.000000


     Computing stress (Cartesian axis) and pressure

          total   stress  (Ry/bohr**3)                   (kbar)     P=       42.58
   0.00029217   0.00000000  -0.00000000           42.98        0.00       -0.00
   0.00000000   0.00029217   0.00000000            0.00       42.98        0.00
  -0.00000000   0.00000000   0.00028410           -0.00        0.00       41.79


     Writing all to output data dir ./tmp_3.150/hf_3.150.save/ :
     XML data file, charge density, pseudopotentials, collected wavefunctions

     init_run     :     61.66s CPU      3.25s WALL (       1 calls)
     electrons    :    756.62s CPU     34.45s WALL (       1 calls)
     forces       :      6.09s CPU      0.37s WALL (       1 calls)
     stress       :      2.19s CPU      1.24s WALL (       1 calls)

     Called by init_run:
     wfcinit      :     44.31s CPU      1.97s WALL (       1 calls)
     potinit      :      8.33s CPU      0.53s WALL (       1 calls)
     hinit0       :      8.75s CPU      0.63s WALL (       1 calls)

     Called by electrons:
     c_bands      :    632.48s CPU     27.53s WALL (       7 calls)
     sum_band     :    111.03s CPU      5.36s WALL (       7 calls)
     v_of_rho     :      2.02s CPU      0.09s WALL (       7 calls)
     newd         :      1.53s CPU      0.67s WALL (       7 calls)
     PAW_pot      :     11.22s CPU      1.05s WALL (       7 calls)
     mix_rho      :      0.03s CPU      0.01s WALL (       7 calls)

     Called by c_bands:
     init_us_2    :      5.03s CPU      0.19s WALL (     680 calls)
     cegterg      :    620.42s CPU     27.18s WALL (     280 calls)

     Called by *egterg:
     cdiaghg      :      3.42s CPU      0.18s WALL (    1124 calls)
     h_psi        :    571.43s CPU     24.87s WALL (    1204 calls)
     s_psi        :     21.87s CPU      1.00s WALL (    1204 calls)
     g_psi        :      0.19s CPU      0.03s WALL (     884 calls)

     Called by h_psi:
     h_psi:calbec :     26.16s CPU      0.99s WALL (    1204 calls)
     vloc_psi     :    519.45s CPU     22.80s WALL (    1204 calls)
                                        0.00s GPU  (    1204 calls)
     add_vuspsi   :     24.63s CPU      0.97s WALL (    1204 calls)

     General routines
     calbec       :     38.96s CPU      1.95s WALL (    2164 calls)
     fft          :      9.54s CPU      0.53s WALL (     115 calls)
     ffts         :      6.10s CPU      0.33s WALL (      14 calls)
     fftw         :    587.13s CPU     25.60s WALL (   28754 calls)
     interpolate  :      6.46s CPU      0.35s WALL (       7 calls)

     Parallel routines

     PWSCF        :  13m46.98s CPU     39.41s WALL


   This run was terminated on:  23:30:25   5Sep2026            

=------------------------------------------------------------------------------=
   JOB DONE.
=------------------------------------------------------------------------------=
