
     Program PWSCF v.7.5 starts on  5Sep2026 at 23:28:22 

     This program is part of the open-source Quantum ESPRESSO suite
     for quantum simulation of materials; please cite
         "P. Giannozzi et al., J. Phys.:Condens. Matter 21 395502 (2009);
         "P. Giannozzi et al., J. Phys.:Condens. Matter 29 465901 (2017);
         "P. Giannozzi et al., J. Chem. Phys. 152 154105 (2020);
          URL http://www.quantum-espresso.org", 
     in publications or presentations arising from this work. More details at
     http://www.quantum-espresso.org/quote

     Parallel version (MPI & OpenMP), running on      24 processor cores
     Number of MPI processes:                 1
     Threads/MPI process:                    24

     MPI processes distributed on     1 nodes
     13356 MiB available memory on the printing compute node when the environment starts

     Waiting for input...
     Reading input from standard input
Warning: card &CELL ignored

     Current dimensions of program PWSCF are:
     Max number of different atomic species (ntypx) = 10
     Max number of k-points (npk) =  40000
     Max angular momentum in pseudopotentials (lmaxx) =  4
     file Hf.pbe-spn-kjpaw_psl.1.0.0.UPF: wavefunction(s)  5P renormalized
     Message from routine setup:
     using ibrav=0 with symmetry is DISCOURAGED, use correct ibrav instead

     Subspace diagonalization in iterative solution of the eigenvalue problem:
     a serial algorithm will be used


     G-vector sticks info
     --------------------
     sticks:   dense  smooth     PW     G-vecs:    dense   smooth      PW
     Sum         925     451    139                35469    12479    2129

     Using Slab Decomposition



     bravais-lattice index     =            0
     lattice parameter (alat)  =       5.7637  a.u.
     unit-cell volume          =     261.9895 (a.u.)^3
     number of atoms/cell      =            2
     number of atomic types    =            1
     number of electrons       =        24.00
     number of Kohn-Sham states=           16
     kinetic-energy cutoff     =      50.0000  Ry
     charge density cutoff     =     400.0000  Ry
     scf convergence threshold =      1.0E-08
     mixing beta               =       0.7000
     number of iterations used =            8  plain     mixing
     Exchange-correlation= SLA  PW   PBX  PBC
                           (   1   4   3   4   0   0   0)

     celldm(1)=   5.763665  celldm(2)=   0.000000  celldm(3)=   0.000000
     celldm(4)=   0.000000  celldm(5)=   0.000000  celldm(6)=   0.000000

     crystal axes: (cart. coord. in units of alat)
               a(1) = (   1.000000   0.000000   0.000000 )  
               a(2) = (  -0.500000   0.866025   0.000000 )  
               a(3) = (   0.000000   0.000000   1.580000 )  

     reciprocal axes: (cart. coord. in units 2 pi/alat)
               b(1) = (  1.000000  0.577350 -0.000000 )  
               b(2) = (  0.000000  1.154701  0.000000 )  
               b(3) = (  0.000000 -0.000000  0.632911 )  


     PseudoPot. # 1 for Hf read from file:
     ../pseudo/Hf.pbe-spn-kjpaw_psl.1.0.0.UPF
     MD5 check sum: bf8a91e620b6303fe4cf956cf37905ef
     Pseudo is Projector augmented-wave + core cor, Zval = 12.0
     Generated using &quot;atomic&quot; code by A. Dal Corso  v.6.2.2
     Shape of augmentation charge: PSQ
     Using radial grid of 1271 points,  6 beta functions with: 
                l(1) =   0
                l(2) =   0
                l(3) =   1
                l(4) =   1
                l(5) =   2
                l(6) =   2
     Q(r) pseudized with 0 coefficients 


     atomic species   valence    mass     pseudopotential
     Hf               12.00   178.49000     Hf( 1.00)

     24 Sym. Ops., with inversion, found (12 have fractional translation)



   Cartesian axes

     site n.     atom                  positions (alat units)
         1        Hf     tau(   1) = (   0.0000000   0.0000000   0.0000000  )
         2        Hf     tau(   2) = (   0.0000000   0.5773503   0.7900000  )

     number of k points=    40  Marzari-Vanderbilt smearing, width (Ry)=  0.0200
                       cart. coord. in units 2pi/alat
        k(    1) = (   0.0000000   0.0000000   0.0000000), wk =   0.0052083
        k(    2) = (   0.0000000   0.0000000   0.1054852), wk =   0.0104167
        k(    3) = (   0.0000000   0.0000000   0.2109705), wk =   0.0104167
        k(    4) = (   0.0000000   0.0000000  -0.3164557), wk =   0.0052083
        k(    5) = (   0.0000000   0.1443376   0.0000000), wk =   0.0312500
        k(    6) = (   0.0000000   0.1443376   0.1054852), wk =   0.0625000
        k(    7) = (   0.0000000   0.1443376   0.2109705), wk =   0.0625000
        k(    8) = (   0.0000000   0.1443376  -0.3164557), wk =   0.0312500
        k(    9) = (   0.0000000   0.2886751   0.0000000), wk =   0.0312500
        k(   10) = (   0.0000000   0.2886751   0.1054852), wk =   0.0625000
        k(   11) = (   0.0000000   0.2886751   0.2109705), wk =   0.0625000
        k(   12) = (   0.0000000   0.2886751  -0.3164557), wk =   0.0312500
        k(   13) = (   0.0000000   0.4330127   0.0000000), wk =   0.0312500
        k(   14) = (   0.0000000   0.4330127   0.1054852), wk =   0.0625000
        k(   15) = (   0.0000000   0.4330127   0.2109705), wk =   0.0625000
        k(   16) = (   0.0000000   0.4330127  -0.3164557), wk =   0.0312500
        k(   17) = (   0.0000000  -0.5773503   0.0000000), wk =   0.0156250
        k(   18) = (   0.0000000  -0.5773503   0.1054852), wk =   0.0312500
        k(   19) = (   0.0000000  -0.5773503   0.2109705), wk =   0.0312500
        k(   20) = (   0.0000000  -0.5773503  -0.3164557), wk =   0.0156250
        k(   21) = (   0.1250000   0.2165064   0.0000000), wk =   0.0312500
        k(   22) = (   0.1250000   0.2165064   0.1054852), wk =   0.0625000
        k(   23) = (   0.1250000   0.2165064   0.2109705), wk =   0.0625000
        k(   24) = (   0.1250000   0.2165064  -0.3164557), wk =   0.0312500
        k(   25) = (   0.1250000   0.3608439   0.0000000), wk =   0.0625000
        k(   26) = (   0.1250000   0.3608439   0.1054852), wk =   0.1250000
        k(   27) = (   0.1250000   0.3608439   0.2109705), wk =   0.1250000
        k(   28) = (   0.1250000   0.3608439  -0.3164557), wk =   0.0625000
        k(   29) = (   0.1250000   0.5051815   0.0000000), wk =   0.0625000
        k(   30) = (   0.1250000   0.5051815   0.1054852), wk =   0.1250000
        k(   31) = (   0.1250000   0.5051815   0.2109705), wk =   0.1250000
        k(   32) = (   0.1250000   0.5051815  -0.3164557), wk =   0.0625000
        k(   33) = (   0.2500000   0.4330127   0.0000000), wk =   0.0312500
        k(   34) = (   0.2500000   0.4330127   0.1054852), wk =   0.0625000
        k(   35) = (   0.2500000   0.4330127   0.2109705), wk =   0.0625000
        k(   36) = (   0.2500000   0.4330127  -0.3164557), wk =   0.0312500
        k(   37) = (   0.2500000   0.5773503   0.0000000), wk =   0.0312500
        k(   38) = (   0.2500000   0.5773503   0.1054852), wk =   0.0625000
        k(   39) = (   0.2500000   0.5773503   0.2109705), wk =   0.0625000
        k(   40) = (   0.2500000   0.5773503  -0.3164557), wk =   0.0312500

     Dense  grid:    35469 G-vectors     FFT dimensions: (  45,  45,  60)

     Smooth grid:    12479 G-vectors     FFT dimensions: (  27,  27,  48)

     Estimated max dynamical RAM per process >     149.82 MB

     Initial potential from superposition of free atoms

     starting charge      23.9961, renormalised to      24.0000
     Starting wfcs are   20 randomized atomic wfcs
     Checking if some PAW data can be deallocated... 

     total cpu time spent up to now is        3.2 secs

     per-process dynamical memory:    49.0 Mb

     Self-consistent Calculation

     iteration #  1     ecut=    50.00 Ry     beta= 0.70
     Davidson diagonalization with overlap
     ethr =  1.00E-02,  avg # of iterations =  2.4

     Threshold (ethr) on eigenvalues was too large:
     Diagonalizing with lowered threshold

     Davidson diagonalization with overlap
     ethr =  1.09E-04,  avg # of iterations =  3.7

     total cpu time spent up to now is       12.1 secs

     total energy              =   -1392.40982532 Ry
     estimated scf accuracy    <       0.03241413 Ry

     iteration #  2     ecut=    50.00 Ry     beta= 0.70
     Davidson diagonalization with overlap
     ethr =  1.35E-04,  avg # of iterations =  2.0

     total cpu time spent up to now is       16.6 secs

     total energy              =   -1392.41372372 Ry
     estimated scf accuracy    <       0.00088059 Ry

     iteration #  3     ecut=    50.00 Ry     beta= 0.70
     Davidson diagonalization with overlap
     ethr =  3.67E-06,  avg # of iterations =  3.3

     total cpu time spent up to now is       22.0 secs

     total energy              =   -1392.41379963 Ry
     estimated scf accuracy    <       0.00004318 Ry

     iteration #  4     ecut=    50.00 Ry     beta= 0.70
     Davidson diagonalization with overlap
     ethr =  1.80E-07,  avg # of iterations =  3.2

     total cpu time spent up to now is       27.0 secs

     total energy              =   -1392.41380848 Ry
     estimated scf accuracy    <       0.00000028 Ry

     iteration #  5     ecut=    50.00 Ry     beta= 0.70
     Davidson diagonalization with overlap
     ethr =  1.16E-09,  avg # of iterations =  4.4

     total cpu time spent up to now is       32.8 secs

     total energy              =   -1392.41380886 Ry
     estimated scf accuracy    <       0.00000003 Ry

     iteration #  6     ecut=    50.00 Ry     beta= 0.70
     Davidson diagonalization with overlap
     ethr =  1.19E-10,  avg # of iterations =  2.2

     total cpu time spent up to now is       37.5 secs

     End of self-consistent calculation

          k = 0.0000 0.0000 0.0000 (  1581 PWs)   bands (ev):

   -44.4140 -44.2790 -13.8680 -12.7079 -12.7079 -12.5088 -12.5088 -12.4863
     9.3304  12.9895  18.3448  18.3448  18.3729  18.7067  19.3381  19.3381

          k = 0.0000 0.0000 0.1055 (  1587 PWs)   bands (ev):

   -44.4051 -44.2881 -13.7833 -12.6948 -12.6948 -12.5880 -12.5226 -12.5226
     9.6324  12.9198  17.9027  18.2024  18.2024  18.4448  19.0924  19.0924

          k = 0.0000 0.0000 0.2110 (  1592 PWs)   bands (ev):

   -44.3806 -44.3130 -13.5470 -12.8588 -12.6587 -12.6587 -12.5595 -12.5595
    10.4623  12.5147  17.2393  17.8221  18.0888  18.0888  18.6115  18.6115

          k = 0.0000 0.0000-0.3165 (  1568 PWs)   bands (ev):

   -44.3469 -44.3469 -13.2115 -13.2115 -12.6088 -12.6088 -12.6088 -12.6088
    11.5742  11.5742  17.2536  17.2536  18.2274  18.2274  18.2274  18.2274

          k = 0.0000 0.1443 0.0000 (  1573 PWs)   bands (ev):

   -44.3996 -44.2736 -13.8050 -12.8447 -12.7528 -12.6515 -12.5261 -12.5157
     9.8801  13.5085  17.3358  17.5368  18.7585  18.8602  19.4739  19.5844

          k = 0.0000 0.1443 0.1055 (  1571 PWs)   bands (ev):

   -44.3912 -44.2821 -13.7317 -12.8264 -12.7380 -12.7243 -12.5476 -12.5416
    10.1638  13.4496  17.0101  17.3872  18.5168  18.6080  18.9523  19.4841

          k = 0.0000 0.1443 0.2110 (  1580 PWs)   bands (ev):

   -44.3683 -44.3054 -13.5285 -12.9464 -12.7679 -12.6970 -12.6142 -12.5836
    10.9520  13.0235  16.5130  17.4494  17.7497  18.4621  18.6235  19.0146

          k = 0.0000 0.1443-0.3165 (  1580 PWs)   bands (ev):

   -44.3369 -44.3369 -13.2421 -13.2421 -12.6932 -12.6932 -12.6404 -12.6404
    12.0417  12.0417  16.7789  16.7789  18.0694  18.0694  18.6157  18.6157

          k = 0.0000 0.2887 0.0000 (  1567 PWs)   bands (ev):

   -44.3629 -44.2622 -13.6345 -13.1726 -12.9740 -12.8545 -12.6044 -12.5734
    11.2937  14.4355  16.0089  16.4361  17.9848  18.7430  18.8366  20.3448

          k = 0.0000 0.2887 0.1055 (  1572 PWs)   bands (ev):

   -44.3562 -44.2690 -13.6109 -13.1318 -13.0298 -12.8362 -12.6171 -12.5926
    11.4999  14.4391  15.7016  16.5296  17.8069  18.7484  18.8096  20.4516

          k = 0.0000 0.2887 0.2110 (  1573 PWs)   bands (ev):

   -44.3379 -44.2875 -13.5313 -13.2220 -12.9630 -12.7855 -12.6807 -12.6450
    12.0913  13.9504  15.6493  16.6620  17.4280  18.3658  19.0519  20.0903

          k = 0.0000 0.2887-0.3165 (  1572 PWs)   bands (ev):

   -44.3128 -44.3128 -13.3930 -13.3930 -12.8073 -12.8073 -12.7157 -12.7157
    12.9780  12.9780  16.2102  16.2102  17.7183  17.7183  19.5025  19.5025

          k = 0.0000 0.4330 0.0000 (  1553 PWs)   bands (ev):

   -44.3215 -44.2554 -13.4955 -13.4145 -13.2700 -12.9496 -12.7420 -12.6247
    12.8444  14.2109  14.8637  16.4773  18.1208  18.3863  18.5622  22.5510

          k = 0.0000 0.4330 0.1055 (  1564 PWs)   bands (ev):

   -44.3171 -44.2598 -13.6061 -13.3681 -13.2187 -12.9285 -12.7245 -12.6472
    12.8101  14.2130  15.0794  16.2917  18.1780  18.3467  18.7308  22.4110

          k = 0.0000 0.4330 0.2110 (  1563 PWs)   bands (ev):

   -44.3050 -44.2719 -13.6626 -13.5048 -13.0068 -12.8703 -12.7333 -12.7078
    12.9072  13.9105  15.4430  16.3070  18.0182  18.5903  19.0046  21.2915

          k = 0.0000 0.4330-0.3165 (  1566 PWs)   bands (ev):

   -44.2885 -44.2885 -13.6226 -13.6226 -12.8286 -12.8286 -12.7898 -12.7898
    13.3138  13.3138  16.0090  16.0090  18.2325  18.2325  20.0310  20.0310

          k = 0.0000-0.5774 0.0000 (  1562 PWs)   bands (ev):

   -44.3006 -44.2562 -13.6271 -13.3871 -13.2838 -12.9875 -12.8388 -12.6467
    13.5708  13.8404  14.4537  16.6410  17.8993  18.2308  19.1382  24.0371

          k = 0.0000-0.5774 0.1055 (  1558 PWs)   bands (ev):

   -44.2976 -44.2592 -13.6925 -13.4678 -13.1685 -12.9654 -12.7993 -12.6702
    13.2021  13.8920  15.1548  16.0177  18.1524  18.7903  18.8275  23.4525

          k = 0.0000-0.5774 0.2110 (  1550 PWs)   bands (ev):

   -44.2895 -44.2673 -13.7527 -13.6166 -12.9744 -12.9044 -12.7670 -12.7341
    13.0177  13.7552  15.5556  15.9999  18.4108  18.8980  19.2216  21.6698

          k = 0.0000-0.5774-0.3165 (  1548 PWs)   bands (ev):

   -44.2784 -44.2784 -13.7269 -13.7269 -12.8241 -12.8241 -12.8200 -12.8200
    13.2749  13.2749  15.8884  15.8884  18.8432  18.8432  20.0948  20.0948

          k = 0.1250 0.2165 0.0000 (  1575 PWs)   bands (ev):

   -44.3740 -44.2652 -13.6880 -13.0300 -12.9640 -12.7621 -12.5896 -12.5750
    10.8778  14.3627  16.4122  16.4604  18.1361  18.4768  19.4548  19.9502

          k = 0.1250 0.2165 0.1055 (  1568 PWs)   bands (ev):

   -44.3668 -44.2726 -13.6429 -12.9944 -12.9934 -12.7937 -12.6070 -12.5841
    11.1174  14.3416  16.0183  16.5111  18.1441  18.4419  19.0581  19.9908

          k = 0.1250 0.2165 0.2110 (  1576 PWs)   bands (ev):

   -44.3470 -44.2926 -13.5158 -13.1316 -12.8979 -12.7952 -12.6528 -12.6371
    11.7965  13.8339  15.8074  16.7261  17.5040  18.3106  18.9704  19.6638

          k = 0.1250 0.2165-0.3165 (  1580 PWs)   bands (ev):

   -44.3199 -44.3199 -13.3307 -13.3307 -12.7935 -12.7935 -12.6947 -12.6947
    12.7903  12.7903  16.3190  16.3190  17.6700  17.6700  19.2643  19.2643

          k = 0.1250 0.3608 0.0000 (  1565 PWs)   bands (ev):

   -44.3345 -44.2565 -13.4886 -13.3322 -13.2004 -12.9191 -12.6921 -12.6755
    12.4759  14.8716  15.2757  16.0162  17.8074  18.0204  18.8502  21.0933

          k = 0.1250 0.3608 0.1055 (  1565 PWs)   bands (ev):

   -44.3293 -44.2618 -13.5461 -13.2982 -13.1607 -12.9336 -12.7099 -12.6579
    12.5864  14.8959  15.1456  16.1534  17.5828  18.3070  18.5974  20.9761

          k = 0.1250 0.3608 0.2110 (  1567 PWs)   bands (ev):

   -44.3151 -44.2761 -13.5713 -13.3980 -13.0042 -12.9062 -12.7585 -12.6655
    12.9361  14.2885  15.5509  16.3999  17.3201  17.9804  18.8626  20.5602

          k = 0.1250 0.3608-0.3165 (  1572 PWs)   bands (ev):

   -44.2956 -44.2956 -13.5143 -13.5143 -12.8980 -12.8980 -12.7391 -12.7391
    13.5337  13.5337  16.1795  16.1795  17.4010  17.4010  19.6999  19.6999

          k = 0.1250 0.5052 0.0000 (  1562 PWs)   bands (ev):

   -44.3007 -44.2561 -13.5570 -13.3328 -13.2869 -13.0436 -12.8352 -12.7302
    13.7606  14.3919  14.5627  16.3115  17.6630  18.2335  19.0078  22.8099

          k = 0.1250 0.5052 0.1055 (  1562 PWs)   bands (ev):

   -44.2977 -44.2591 -13.6229 -13.4214 -13.1849 -13.0064 -12.8184 -12.7247
    13.4939  14.4149  15.0918  16.0270  17.6788  18.2978  19.0192  22.5260

          k = 0.1250 0.5052 0.2110 (  1553 PWs)   bands (ev):

   -44.2895 -44.2672 -13.6859 -13.5624 -13.0710 -12.9032 -12.8409 -12.7008
    13.3767  14.1918  15.5299  16.3295  17.3695  18.2582  19.3732  21.2666

          k = 0.1250 0.5052-0.3165 (  1546 PWs)   bands (ev):

   -44.2784 -44.2784 -13.6655 -13.6655 -12.9698 -12.9698 -12.7431 -12.7431
    13.6573  13.6573  16.1207  16.1207  17.7615  17.7615  20.1030  20.1030

          k = 0.2500 0.4330 0.0000 (  1552 PWs)   bands (ev):

   -44.3009 -44.2559 -13.4374 -13.3275 -13.2899 -13.0602 -12.8528 -12.8318
    14.0504  14.6890  15.3544  15.5752  17.3751  18.2909  18.6781  21.9003

          k = 0.2500 0.4330 0.1055 (  1549 PWs)   bands (ev):

   -44.2979 -44.2589 -13.4836 -13.4532 -13.1231 -13.1052 -12.8686 -12.7590
    14.0332  14.6087  15.4337  15.8324  17.4597  17.7957  18.7009  21.7704

          k = 0.2500 0.4330 0.2110 (  1556 PWs)   bands (ev):

   -44.2896 -44.2672 -13.5813 -13.5201 -13.1407 -13.0121 -12.8320 -12.6932
    14.0515  14.4272  15.7279  16.4061  16.9908  17.4292  18.8322  20.7719

          k = 0.2500 0.4330-0.3165 (  1560 PWs)   bands (ev):

   -44.2784 -44.2784 -13.5868 -13.5868 -13.0778 -13.0778 -12.7219 -12.7219
    14.2003  14.2003  16.2469  16.2469  17.0481  17.0481  19.5141  19.5141

          k = 0.2500 0.5774 0.0000 (  1566 PWs)   bands (ev):

   -44.2805 -44.2621 -13.4937 -13.2653 -13.2114 -13.1419 -12.9555 -12.9362
    14.4586  14.8459  15.2089  15.8199  17.4608  17.7995  19.3931  22.9103

          k = 0.2500 0.5774 0.1055 (  1562 PWs)   bands (ev):

   -44.2793 -44.2633 -13.5189 -13.3693 -13.3010 -12.9900 -12.9764 -12.8392
    14.3451  15.1518  15.3166  15.6081  17.3755  17.6394  19.3725  22.6525

          k = 0.2500 0.5774 0.2110 (  1558 PWs)   bands (ev):

   -44.2759 -44.2667 -13.5847 -13.5155 -13.2731 -13.0710 -12.8032 -12.7289
    14.3225  15.0459  15.6722  15.7257  17.1157  17.3622  19.4585  21.0199

          k = 0.2500 0.5774-0.3165 (  1562 PWs)   bands (ev):

   -44.2713 -44.2713 -13.5952 -13.5952 -13.1773 -13.1773 -12.7112 -12.7112
    14.5597  14.5597  15.9938  15.9938  17.0477  17.0477  19.9220  19.9220

     the Fermi energy is    17.1700 ev

!    total energy              =   -1392.41380886 Ry
     total all-electron energy =    -60313.938179 Ry
     estimated scf accuracy    <          1.9E-09 Ry
     smearing contrib. (-TS)   =      -0.00094019 Ry
     internal energy E=F+TS    =   -1392.41286867 Ry

     The total energy is F=E-TS. E is the sum of the following terms:
     one-electron contribution =     -22.29542091 Ry
     hartree contribution      =      25.25874610 Ry
     xc contribution           =     -83.16800290 Ry
     ewald contribution        =    -163.75454418 Ry
     one-center paw contrib.   =   -1148.45364679 Ry

     convergence has been achieved in   6 iterations

     Forces acting on atoms (cartesian axes, Ry/au):

     atom    1 type  1   force =     0.00000000   -0.00000000    0.00000000
     atom    2 type  1   force =     0.00000000    0.00000000    0.00000000

     Total force =     0.000000     Total SCF correction =     0.000000


     Computing stress (Cartesian axis) and pressure

          total   stress  (Ry/bohr**3)                   (kbar)     P=      185.12
   0.00123602  -0.00000000   0.00000000          181.82       -0.00        0.00
  -0.00000000   0.00123602   0.00000000           -0.00      181.82        0.00
   0.00000000   0.00000000   0.00130329            0.00        0.00      191.72


     Writing all to output data dir ./tmp_3.050/hf_3.050.save/ :
     XML data file, charge density, pseudopotentials, collected wavefunctions

     init_run     :     58.68s CPU      3.11s WALL (       1 calls)
     electrons    :    759.84s CPU     34.38s WALL (       1 calls)
     forces       :      5.64s CPU      0.35s WALL (       1 calls)
     stress       :      2.09s CPU      1.11s WALL (       1 calls)

     Called by init_run:
     wfcinit      :     43.38s CPU      1.92s WALL (       1 calls)
     potinit      :      7.95s CPU      0.51s WALL (       1 calls)
     hinit0       :      7.14s CPU      0.57s WALL (       1 calls)

     Called by electrons:
     c_bands      :    636.46s CPU     27.55s WALL (       7 calls)
     sum_band     :    110.35s CPU      5.32s WALL (       7 calls)
     v_of_rho     :      2.02s CPU      0.08s WALL (       7 calls)
     newd         :      1.54s CPU      0.64s WALL (       7 calls)
     PAW_pot      :     11.65s CPU      1.04s WALL (       7 calls)
     mix_rho      :      0.12s CPU      0.01s WALL (       7 calls)

     Called by c_bands:
     init_us_2    :      4.50s CPU      0.18s WALL (     680 calls)
     cegterg      :    627.07s CPU     27.23s WALL (     280 calls)

     Called by *egterg:
     cdiaghg      :      4.36s CPU      0.18s WALL (    1088 calls)
     h_psi        :    583.55s CPU     25.18s WALL (    1168 calls)
     s_psi        :     20.53s CPU      0.90s WALL (    1168 calls)
     g_psi        :      0.43s CPU      0.03s WALL (     848 calls)

     Called by h_psi:
     h_psi:calbec :     20.02s CPU      0.90s WALL (    1168 calls)
     vloc_psi     :    537.86s CPU     23.28s WALL (    1168 calls)
                                        0.00s GPU  (    1168 calls)
     add_vuspsi   :     24.30s CPU      0.89s WALL (    1168 calls)

     General routines
     calbec       :     32.69s CPU      1.78s WALL (    2128 calls)
     fft          :      7.47s CPU      0.44s WALL (     115 calls)
     ffts         :      5.73s CPU      0.31s WALL (      14 calls)
     fftw         :    604.13s CPU     26.03s WALL (   28770 calls)
     interpolate  :      5.73s CPU      0.32s WALL (       7 calls)

     Parallel routines

     PWSCF        :  13m46.60s CPU     39.02s WALL


   This run was terminated on:  23:29: 1   5Sep2026            

=------------------------------------------------------------------------------=
   JOB DONE.
=------------------------------------------------------------------------------=
