
     Program PWSCF v.7.5 starts on  5Sep2026 at 23:31:52 

     This program is part of the open-source Quantum ESPRESSO suite
     for quantum simulation of materials; please cite
         "P. Giannozzi et al., J. Phys.:Condens. Matter 21 395502 (2009);
         "P. Giannozzi et al., J. Phys.:Condens. Matter 29 465901 (2017);
         "P. Giannozzi et al., J. Chem. Phys. 152 154105 (2020);
          URL http://www.quantum-espresso.org", 
     in publications or presentations arising from this work. More details at
     http://www.quantum-espresso.org/quote

     Parallel version (MPI & OpenMP), running on      24 processor cores
     Number of MPI processes:                 1
     Threads/MPI process:                    24

     MPI processes distributed on     1 nodes
     13178 MiB available memory on the printing compute node when the environment starts

     Waiting for input...
     Reading input from standard input
Warning: card &CELL ignored

     Current dimensions of program PWSCF are:
     Max number of different atomic species (ntypx) = 10
     Max number of k-points (npk) =  40000
     Max angular momentum in pseudopotentials (lmaxx) =  4
     file Hf.pbe-spn-kjpaw_psl.1.0.0.UPF: wavefunction(s)  5P renormalized
     Message from routine setup:
     using ibrav=0 with symmetry is DISCOURAGED, use correct ibrav instead

     Subspace diagonalization in iterative solution of the eigenvalue problem:
     a serial algorithm will be used


     G-vector sticks info
     --------------------
     sticks:   dense  smooth     PW     G-vecs:    dense   smooth      PW
     Sum        1069     535    163                44823    15795    2671

     Using Slab Decomposition



     bravais-lattice index     =            0
     lattice parameter (alat)  =       6.2361  a.u.
     unit-cell volume          =     331.8380 (a.u.)^3
     number of atoms/cell      =            2
     number of atomic types    =            1
     number of electrons       =        24.00
     number of Kohn-Sham states=           16
     kinetic-energy cutoff     =      50.0000  Ry
     charge density cutoff     =     400.0000  Ry
     scf convergence threshold =      1.0E-08
     mixing beta               =       0.7000
     number of iterations used =            8  plain     mixing
     Exchange-correlation= SLA  PW   PBX  PBC
                           (   1   4   3   4   0   0   0)

     celldm(1)=   6.236096  celldm(2)=   0.000000  celldm(3)=   0.000000
     celldm(4)=   0.000000  celldm(5)=   0.000000  celldm(6)=   0.000000

     crystal axes: (cart. coord. in units of alat)
               a(1) = (   1.000000   0.000000   0.000000 )  
               a(2) = (  -0.500000   0.866025   0.000000 )  
               a(3) = (   0.000000   0.000000   1.580000 )  

     reciprocal axes: (cart. coord. in units 2 pi/alat)
               b(1) = (  1.000000  0.577350 -0.000000 )  
               b(2) = (  0.000000  1.154701  0.000000 )  
               b(3) = (  0.000000 -0.000000  0.632911 )  


     PseudoPot. # 1 for Hf read from file:
     ../pseudo/Hf.pbe-spn-kjpaw_psl.1.0.0.UPF
     MD5 check sum: bf8a91e620b6303fe4cf956cf37905ef
     Pseudo is Projector augmented-wave + core cor, Zval = 12.0
     Generated using &quot;atomic&quot; code by A. Dal Corso  v.6.2.2
     Shape of augmentation charge: PSQ
     Using radial grid of 1271 points,  6 beta functions with: 
                l(1) =   0
                l(2) =   0
                l(3) =   1
                l(4) =   1
                l(5) =   2
                l(6) =   2
     Q(r) pseudized with 0 coefficients 


     atomic species   valence    mass     pseudopotential
     Hf               12.00   178.49000     Hf( 1.00)

     24 Sym. Ops., with inversion, found (12 have fractional translation)



   Cartesian axes

     site n.     atom                  positions (alat units)
         1        Hf     tau(   1) = (   0.0000000   0.0000000   0.0000000  )
         2        Hf     tau(   2) = (   0.0000000   0.5773503   0.7900000  )

     number of k points=    40  Marzari-Vanderbilt smearing, width (Ry)=  0.0200
                       cart. coord. in units 2pi/alat
        k(    1) = (   0.0000000   0.0000000   0.0000000), wk =   0.0052083
        k(    2) = (   0.0000000   0.0000000   0.1054852), wk =   0.0104167
        k(    3) = (   0.0000000   0.0000000   0.2109705), wk =   0.0104167
        k(    4) = (   0.0000000   0.0000000  -0.3164557), wk =   0.0052083
        k(    5) = (   0.0000000   0.1443376   0.0000000), wk =   0.0312500
        k(    6) = (   0.0000000   0.1443376   0.1054852), wk =   0.0625000
        k(    7) = (   0.0000000   0.1443376   0.2109705), wk =   0.0625000
        k(    8) = (   0.0000000   0.1443376  -0.3164557), wk =   0.0312500
        k(    9) = (   0.0000000   0.2886751   0.0000000), wk =   0.0312500
        k(   10) = (   0.0000000   0.2886751   0.1054852), wk =   0.0625000
        k(   11) = (   0.0000000   0.2886751   0.2109705), wk =   0.0625000
        k(   12) = (   0.0000000   0.2886751  -0.3164557), wk =   0.0312500
        k(   13) = (   0.0000000   0.4330127   0.0000000), wk =   0.0312500
        k(   14) = (   0.0000000   0.4330127   0.1054852), wk =   0.0625000
        k(   15) = (   0.0000000   0.4330127   0.2109705), wk =   0.0625000
        k(   16) = (   0.0000000   0.4330127  -0.3164557), wk =   0.0312500
        k(   17) = (   0.0000000  -0.5773503   0.0000000), wk =   0.0156250
        k(   18) = (   0.0000000  -0.5773503   0.1054852), wk =   0.0312500
        k(   19) = (   0.0000000  -0.5773503   0.2109705), wk =   0.0312500
        k(   20) = (   0.0000000  -0.5773503  -0.3164557), wk =   0.0156250
        k(   21) = (   0.1250000   0.2165064   0.0000000), wk =   0.0312500
        k(   22) = (   0.1250000   0.2165064   0.1054852), wk =   0.0625000
        k(   23) = (   0.1250000   0.2165064   0.2109705), wk =   0.0625000
        k(   24) = (   0.1250000   0.2165064  -0.3164557), wk =   0.0312500
        k(   25) = (   0.1250000   0.3608439   0.0000000), wk =   0.0625000
        k(   26) = (   0.1250000   0.3608439   0.1054852), wk =   0.1250000
        k(   27) = (   0.1250000   0.3608439   0.2109705), wk =   0.1250000
        k(   28) = (   0.1250000   0.3608439  -0.3164557), wk =   0.0625000
        k(   29) = (   0.1250000   0.5051815   0.0000000), wk =   0.0625000
        k(   30) = (   0.1250000   0.5051815   0.1054852), wk =   0.1250000
        k(   31) = (   0.1250000   0.5051815   0.2109705), wk =   0.1250000
        k(   32) = (   0.1250000   0.5051815  -0.3164557), wk =   0.0625000
        k(   33) = (   0.2500000   0.4330127   0.0000000), wk =   0.0312500
        k(   34) = (   0.2500000   0.4330127   0.1054852), wk =   0.0625000
        k(   35) = (   0.2500000   0.4330127   0.2109705), wk =   0.0625000
        k(   36) = (   0.2500000   0.4330127  -0.3164557), wk =   0.0312500
        k(   37) = (   0.2500000   0.5773503   0.0000000), wk =   0.0312500
        k(   38) = (   0.2500000   0.5773503   0.1054852), wk =   0.0625000
        k(   39) = (   0.2500000   0.5773503   0.2109705), wk =   0.0625000
        k(   40) = (   0.2500000   0.5773503  -0.3164557), wk =   0.0312500

     Dense  grid:    44823 G-vectors     FFT dimensions: (  45,  45,  64)

     Smooth grid:    15795 G-vectors     FFT dimensions: (  30,  30,  48)

     Estimated max dynamical RAM per process >     187.31 MB

     Initial potential from superposition of free atoms

     starting charge      23.9961, renormalised to      24.0000
     Starting wfcs are   20 randomized atomic wfcs
     Checking if some PAW data can be deallocated... 

     total cpu time spent up to now is        3.5 secs

     per-process dynamical memory:    56.7 Mb

     Self-consistent Calculation

     iteration #  1     ecut=    50.00 Ry     beta= 0.70
     Davidson diagonalization with overlap
     ethr =  1.00E-02,  avg # of iterations =  2.4

     Threshold (ethr) on eigenvalues was too large:
     Diagonalizing with lowered threshold

     Davidson diagonalization with overlap
     ethr =  1.58E-04,  avg # of iterations =  3.7

     total cpu time spent up to now is       13.9 secs

     total energy              =   -1392.42023817 Ry
     estimated scf accuracy    <       0.05096348 Ry

     iteration #  2     ecut=    50.00 Ry     beta= 0.70
     Davidson diagonalization with overlap
     ethr =  2.12E-04,  avg # of iterations =  2.0

     total cpu time spent up to now is       19.0 secs

     total energy              =   -1392.42709890 Ry
     estimated scf accuracy    <       0.00133343 Ry

     iteration #  3     ecut=    50.00 Ry     beta= 0.70
     Davidson diagonalization with overlap
     ethr =  5.56E-06,  avg # of iterations =  3.4

     total cpu time spent up to now is       24.5 secs

     total energy              =   -1392.42724755 Ry
     estimated scf accuracy    <       0.00006664 Ry

     iteration #  4     ecut=    50.00 Ry     beta= 0.70
     Davidson diagonalization with overlap
     ethr =  2.78E-07,  avg # of iterations =  4.0

     total cpu time spent up to now is       30.6 secs

     total energy              =   -1392.42726677 Ry
     estimated scf accuracy    <       0.00000110 Ry

     iteration #  5     ecut=    50.00 Ry     beta= 0.70
     Davidson diagonalization with overlap
     ethr =  4.59E-09,  avg # of iterations =  3.9

     total cpu time spent up to now is       37.3 secs

     total energy              =   -1392.42726729 Ry
     estimated scf accuracy    <       0.00000008 Ry

     iteration #  6     ecut=    50.00 Ry     beta= 0.70
     Davidson diagonalization with overlap
     ethr =  3.16E-10,  avg # of iterations =  3.0

     total cpu time spent up to now is       42.6 secs

     End of self-consistent calculation

          k = 0.0000 0.0000 0.0000 (  1925 PWs)   bands (ev):

   -49.0698 -49.0238 -18.0050 -17.4638 -17.4638 -17.3735 -17.3680 -17.3680
     6.0930   9.7184  13.4750  14.2923  14.2923  14.5448  15.0142  15.0142

          k = 0.0000 0.0000 0.1055 (  1948 PWs)   bands (ev):

   -49.0667 -49.0269 -17.9652 -17.4575 -17.4575 -17.4187 -17.3745 -17.3745
     6.3215   9.5320  13.2352  14.1801  14.1801  14.3437  14.8358  14.8358

          k = 0.0000 0.0000 0.2110 (  1954 PWs)   bands (ev):

   -49.0584 -49.0354 -17.8539 -17.5387 -17.4400 -17.4400 -17.3923 -17.3923
     6.9692   8.8880  13.0421  13.8451  14.0895  14.0895  14.4801  14.4801

          k = 0.0000 0.0000-0.3165 (  1930 PWs)   bands (ev):

   -49.0469 -49.0469 -17.6984 -17.6984 -17.4159 -17.4159 -17.4159 -17.4159
     7.9107   7.9107  13.3085  13.3085  14.1922  14.1922  14.1922  14.1922

          k = 0.0000 0.1443 0.0000 (  1956 PWs)   bands (ev):

   -49.0650 -49.0221 -17.9764 -17.5229 -17.4837 -17.4302 -17.3877 -17.3767
     6.5095  10.1250  13.0293  13.5255  14.5682  14.6799  15.1260  15.2139

          k = 0.0000 0.1443 0.1055 (  1956 PWs)   bands (ev):

   -49.0621 -49.0250 -17.9417 -17.5142 -17.4766 -17.4690 -17.3960 -17.3839
     6.7289   9.9366  12.7761  13.5575  14.4188  14.4837  14.6232  15.1232

          k = 0.0000 0.1443 0.2110 (  1971 PWs)   bands (ev):

   -49.0543 -49.0328 -17.8456 -17.5741 -17.4882 -17.4572 -17.4204 -17.4037
     7.3541   9.2643  12.6692  13.6198  13.7931  14.3671  14.3782  14.7751

          k = 0.0000 0.1443-0.3165 (  1974 PWs)   bands (ev):

   -49.0436 -49.0436 -17.7116 -17.7116 -17.4544 -17.4544 -17.4304 -17.4304
     8.2761   8.2761  13.0465  13.0465  14.0020  14.0020  14.4783  14.4783

          k = 0.0000 0.2887 0.0000 (  1972 PWs)   bands (ev):

   -49.0527 -49.0184 -17.8989 -17.6661 -17.5737 -17.5294 -17.4292 -17.3991
     7.6384  10.9837  12.1553  12.6823  13.8961  14.4809  14.5878  15.7937

          k = 0.0000 0.2887 0.1055 (  1958 PWs)   bands (ev):

   -49.0504 -49.0207 -17.8856 -17.6474 -17.6032 -17.5206 -17.4325 -17.4078
     7.8210  10.8100  11.9909  12.7538  13.8517  14.3727  14.6307  15.8512

          k = 0.0000 0.2887 0.2110 (  1980 PWs)   bands (ev):

   -49.0441 -49.0270 -17.8446 -17.6918 -17.5779 -17.4972 -17.4576 -17.4320
     8.3477  10.0849  12.1283  12.8780  13.5468  14.1046  14.7994  15.5629

          k = 0.0000 0.2887-0.3165 (  1998 PWs)   bands (ev):

   -49.0356 -49.0356 -17.7757 -17.7757 -17.5111 -17.5111 -17.4649 -17.4649
     9.1503   9.1503  12.5878  12.5878  13.6655  13.6655  15.1275  15.1275

          k = 0.0000 0.4330 0.0000 (  1982 PWs)   bands (ev):

   -49.0388 -49.0163 -17.8096 -17.7994 -17.7099 -17.5729 -17.4921 -17.4232
     9.0785  11.0294  11.4552  12.3595  14.0461  14.1128  14.2107  17.4314

          k = 0.0000 0.4330 0.1055 (  1980 PWs)   bands (ev):

   -49.0373 -49.0178 -17.8715 -17.7561 -17.6992 -17.5630 -17.4831 -17.4334
     9.1542  10.9064  11.5456  12.3891  13.8418  14.2777  14.2925  17.2942

          k = 0.0000 0.4330 0.2110 (  1984 PWs)   bands (ev):

   -49.0332 -49.0219 -17.8971 -17.8206 -17.6048 -17.5360 -17.4854 -17.4612
     9.4054  10.4339  11.8951  12.5067  13.6861  14.0557  14.7595  16.4488

          k = 0.0000 0.4330-0.3165 (  1988 PWs)   bands (ev):

   -49.0275 -49.0275 -17.8771 -17.8771 -17.5264 -17.5264 -17.4988 -17.4988
     9.8543   9.8543  12.3516  12.3516  13.7422  13.7422  15.5154  15.5155

          k = 0.0000-0.5774 0.0000 (  1976 PWs)   bands (ev):

   -49.0318 -49.0166 -17.8687 -17.7640 -17.7408 -17.5903 -17.5355 -17.4337
     9.9420  10.7143  11.1981  12.2068  13.8941  13.9419  14.6611  18.4348

          k = 0.0000-0.5774 0.1055 (  1974 PWs)   bands (ev):

   -49.0308 -49.0176 -17.9046 -17.8026 -17.6830 -17.5800 -17.5169 -17.4442
     9.8345  10.6842  11.5576  12.0135  14.0957  14.1282  14.4407  18.0307

          k = 0.0000-0.5774 0.2110 (  1998 PWs)   bands (ev):

   -49.0280 -49.0204 -17.9360 -17.8729 -17.5935 -17.5518 -17.5019 -17.4735
     9.8014  10.4200  11.9999  12.1822  14.0138  14.2398  14.6785  16.7330

          k = 0.0000-0.5774-0.3165 (  2004 PWs)   bands (ev):

   -49.0242 -49.0242 -17.9247 -17.9247 -17.5265 -17.5265 -17.5129 -17.5129
    10.0232  10.0232  12.2974  12.2974  14.0161  14.0161  15.5650  15.5650

          k = 0.1250 0.2165 0.0000 (  1967 PWs)   bands (ev):

   -49.0564 -49.0194 -17.9229 -17.6051 -17.5706 -17.4847 -17.4155 -17.4054
     7.2892  10.8226  12.4164  12.7942  14.0411  14.3894  14.9835  15.4889

          k = 0.1250 0.2165 0.1055 (  1975 PWs)   bands (ev):

   -49.0539 -49.0219 -17.9009 -17.5890 -17.5844 -17.5029 -17.4159 -17.4135
     7.4869  10.6353  12.1947  12.8659  14.1298  14.2458  14.7420  15.5079

          k = 0.1250 0.2165 0.2110 (  1977 PWs)   bands (ev):

   -49.0471 -49.0287 -17.8389 -17.6521 -17.5473 -17.5026 -17.4350 -17.4347
     8.0553   9.8981  12.2534  13.0243  13.6199  14.1155  14.7296  15.2502

          k = 0.1250 0.2165-0.3165 (  1980 PWs)   bands (ev):

   -49.0379 -49.0379 -17.7490 -17.7490 -17.5020 -17.5020 -17.4555 -17.4555
     8.9149   8.9149  12.7128  12.7128  13.6819  13.6819  14.9450  14.9450

          k = 0.1250 0.3608 0.0000 (  1981 PWs)   bands (ev):

   -49.0431 -49.0166 -17.8325 -17.7367 -17.6784 -17.5567 -17.4695 -17.4448
     8.6300  11.4504  11.7255  12.2478  13.8263  13.8268  14.4701  16.3287

          k = 0.1250 0.3608 0.1055 (  1989 PWs)   bands (ev):

   -49.0414 -49.0184 -17.8525 -17.7218 -17.6674 -17.5652 -17.4663 -17.4457
     8.7673  11.2669  11.7013  12.3458  13.6149  14.1243  14.3017  16.2494

          k = 0.1250 0.3608 0.2110 (  1986 PWs)   bands (ev):

   -49.0365 -49.0233 -17.8594 -17.7711 -17.5997 -17.5536 -17.4844 -17.4503
     9.1699  10.5711  12.0203  12.5263  13.3993  13.8263  14.6303  15.9280

          k = 0.1250 0.3608-0.3165 (  1984 PWs)   bands (ev):

   -49.0299 -49.0299 -17.8290 -17.8290 -17.5506 -17.5506 -17.4796 -17.4796
     9.8013   9.8013  12.4451  12.4451  13.3989  13.3989  15.2822  15.2822

          k = 0.1250 0.5052 0.0000 (  1983 PWs)   bands (ev):

   -49.0318 -49.0166 -17.8375 -17.7416 -17.7391 -17.6136 -17.5346 -17.4701
     9.9642  11.1199  11.3022  12.1046  13.6891  13.9562  14.5701  17.5639

          k = 0.1250 0.5052 0.1055 (  1988 PWs)   bands (ev):

   -49.0308 -49.0176 -17.8744 -17.7819 -17.6873 -17.5989 -17.5217 -17.4712
     9.9385  11.0397  11.5302  12.1068  13.6817  13.8779  14.5973  17.3778

          k = 0.1250 0.5052 0.2110 (  1987 PWs)   bands (ev):

   -49.0280 -49.0204 -17.9063 -17.8483 -17.6300 -17.5554 -17.5256 -17.4667
    10.0002  10.7037  11.9467  12.4139  13.4403  13.6723  14.8914  16.4527

          k = 0.1250 0.5052-0.3165 (  1988 PWs)   bands (ev):

   -49.0242 -49.0242 -17.8971 -17.8971 -17.5824 -17.5824 -17.4858 -17.4858
    10.2727  10.2727  12.4304  12.4304  13.3812  13.3812  15.5197  15.5197

          k = 0.2500 0.4330 0.0000 (  2003 PWs)   bands (ev):

   -49.0319 -49.0166 -17.7840 -17.7427 -17.7378 -17.6180 -17.5338 -17.5244
    10.0145  11.4249  11.7468  11.8484  13.4424  14.0043  14.3116  16.9380

          k = 0.2500 0.4330 0.1055 (  1993 PWs)   bands (ev):

   -49.0308 -49.0176 -17.8187 -17.7924 -17.6502 -17.6490 -17.5315 -17.4969
    10.0807  11.2835  11.8196  12.0523  13.4353  13.6262  14.3829  16.8552

          k = 0.2500 0.4330 0.2110 (  1983 PWs)   bands (ev):

   -49.0280 -49.0204 -17.8624 -17.8276 -17.6571 -17.6011 -17.5213 -17.4656
    10.2844  10.9895  12.0461  12.4151  13.0735  13.3074  14.5839  16.1345

          k = 0.2500 0.4330-0.3165 (  1984 PWs)   bands (ev):

   -49.0242 -49.0242 -17.8625 -17.8625 -17.6277 -17.6277 -17.4768 -17.4768
    10.6146  10.6146  12.3942  12.3942  13.0115  13.0115  15.1802  15.1802

          k = 0.2500 0.5774 0.0000 (  1995 PWs)   bands (ev):

   -49.0250 -49.0187 -17.8103 -17.7080 -17.6854 -17.6757 -17.5901 -17.5620
    10.9365  11.3198  11.5973  11.7216  13.4690  13.6177  14.9012  17.6627

          k = 0.2500 0.5774 0.1055 (  1983 PWs)   bands (ev):

   -49.0246 -49.0191 -17.8258 -17.7600 -17.7317 -17.5917 -17.5896 -17.5302
    10.8637  11.5617  11.6027  11.7307  13.3598  13.4126  14.9038  17.5056

          k = 0.2500 0.5774 0.2110 (  1979 PWs)   bands (ev):

   -49.0234 -49.0203 -17.8611 -17.8297 -17.7148 -17.6234 -17.5141 -17.4814
    10.8755  11.3594  12.0049  12.0110  13.0542  13.0560  15.0214  16.3239

          k = 0.2500 0.5774-0.3165 (  1980 PWs)   bands (ev):

   -49.0219 -49.0219 -17.8672 -17.8672 -17.6707 -17.6707 -17.4735 -17.4735
    11.0612  11.0612  12.2891  12.2891  12.8052  12.8052  15.4563  15.4563

     the Fermi energy is    13.1144 ev

!    total energy              =   -1392.42726730 Ry
     total all-electron energy =    -60313.951638 Ry
     estimated scf accuracy    <          1.6E-09 Ry
     smearing contrib. (-TS)   =       0.00029106 Ry
     internal energy E=F+TS    =   -1392.42755836 Ry

     The total energy is F=E-TS. E is the sum of the following terms:
     one-electron contribution =     -39.92602352 Ry
     hartree contribution      =      29.94335837 Ry
     xc contribution           =     -82.67259882 Ry
     ewald contribution        =    -151.34889689 Ry
     one-center paw contrib.   =   -1148.42339750 Ry

     convergence has been achieved in   6 iterations

     Forces acting on atoms (cartesian axes, Ry/au):

     atom    1 type  1   force =     0.00000000    0.00000000    0.00000000
     atom    2 type  1   force =     0.00000000   -0.00000000    0.00000000

     Total force =     0.000000     Total SCF correction =     0.000000


     Computing stress (Cartesian axis) and pressure

          total   stress  (Ry/bohr**3)                   (kbar)     P=      -95.01
  -0.00063574   0.00000000   0.00000000          -93.52        0.00        0.00
   0.00000000  -0.00063574  -0.00000000            0.00      -93.52       -0.00
   0.00000000  -0.00000000  -0.00066614            0.00       -0.00      -97.99


     Writing all to output data dir ./tmp_3.300/hf_3.300.save/ :
     XML data file, charge density, pseudopotentials, collected wavefunctions

     init_run     :     64.87s CPU      3.44s WALL (       1 calls)
     electrons    :    848.06s CPU     39.08s WALL (       1 calls)
     forces       :      7.35s CPU      0.48s WALL (       1 calls)
     stress       :      2.46s CPU      1.42s WALL (       1 calls)

     Called by init_run:
     wfcinit      :     50.32s CPU      2.26s WALL (       1 calls)
     potinit      :      5.73s CPU      0.43s WALL (       1 calls)
     hinit0       :      8.57s CPU      0.61s WALL (       1 calls)

     Called by electrons:
     c_bands      :    716.05s CPU     31.53s WALL (       7 calls)
     sum_band     :    119.16s CPU      5.89s WALL (       7 calls)
     v_of_rho     :      1.82s CPU      0.08s WALL (       7 calls)
     newd         :      1.75s CPU      0.82s WALL (       7 calls)
     PAW_pot      :     11.99s CPU      1.07s WALL (       7 calls)
     mix_rho      :      0.03s CPU      0.01s WALL (       7 calls)

     Called by c_bands:
     init_us_2    :      7.18s CPU      0.24s WALL (     680 calls)
     cegterg      :    701.18s CPU     31.13s WALL (     280 calls)

     Called by *egterg:
     cdiaghg      :      5.61s CPU      0.19s WALL (    1136 calls)
     h_psi        :    665.48s CPU     28.33s WALL (    1216 calls)
     s_psi        :     14.10s CPU      1.17s WALL (    1216 calls)
     g_psi        :      0.21s CPU      0.04s WALL (     896 calls)

     Called by h_psi:
     h_psi:calbec :     27.70s CPU      1.16s WALL (    1216 calls)
     vloc_psi     :    588.38s CPU     25.88s WALL (    1216 calls)
                                        0.00s GPU  (    1216 calls)
     add_vuspsi   :     47.49s CPU      1.13s WALL (    1216 calls)

     General routines
     calbec       :     44.03s CPU      2.27s WALL (    2176 calls)
     fft          :      9.16s CPU      0.50s WALL (     115 calls)
     ffts         :      3.15s CPU      0.22s WALL (      14 calls)
     fftw         :    655.30s CPU     28.63s WALL (   29240 calls)
     interpolate  :      3.07s CPU      0.22s WALL (       7 calls)

     Parallel routines

     PWSCF        :  15m23.13s CPU     44.50s WALL


   This run was terminated on:  23:32:37   5Sep2026            

=------------------------------------------------------------------------------=
   JOB DONE.
=------------------------------------------------------------------------------=
