
     Program PWSCF v.7.5 starts on  5Sep2026 at 23:32:37 

     This program is part of the open-source Quantum ESPRESSO suite
     for quantum simulation of materials; please cite
         "P. Giannozzi et al., J. Phys.:Condens. Matter 21 395502 (2009);
         "P. Giannozzi et al., J. Phys.:Condens. Matter 29 465901 (2017);
         "P. Giannozzi et al., J. Chem. Phys. 152 154105 (2020);
          URL http://www.quantum-espresso.org", 
     in publications or presentations arising from this work. More details at
     http://www.quantum-espresso.org/quote

     Parallel version (MPI & OpenMP), running on      24 processor cores
     Number of MPI processes:                 1
     Threads/MPI process:                    24

     MPI processes distributed on     1 nodes
     13077 MiB available memory on the printing compute node when the environment starts

     Waiting for input...
     Reading input from standard input
Warning: card &CELL ignored

     Current dimensions of program PWSCF are:
     Max number of different atomic species (ntypx) = 10
     Max number of k-points (npk) =  40000
     Max angular momentum in pseudopotentials (lmaxx) =  4
     file Hf.pbe-spn-kjpaw_psl.1.0.0.UPF: wavefunction(s)  5P renormalized
     Message from routine setup:
     using ibrav=0 with symmetry is DISCOURAGED, use correct ibrav instead

     Subspace diagonalization in iterative solution of the eigenvalue problem:
     a serial algorithm will be used


     G-vector sticks info
     --------------------
     sticks:   dense  smooth     PW     G-vecs:    dense   smooth      PW
     Sum        1111     559    163                46905    16683    2755

     Using Slab Decomposition



     bravais-lattice index     =            0
     lattice parameter (alat)  =       6.3306  a.u.
     unit-cell volume          =     347.1513 (a.u.)^3
     number of atoms/cell      =            2
     number of atomic types    =            1
     number of electrons       =        24.00
     number of Kohn-Sham states=           16
     kinetic-energy cutoff     =      50.0000  Ry
     charge density cutoff     =     400.0000  Ry
     scf convergence threshold =      1.0E-08
     mixing beta               =       0.7000
     number of iterations used =            8  plain     mixing
     Exchange-correlation= SLA  PW   PBX  PBC
                           (   1   4   3   4   0   0   0)

     celldm(1)=   6.330583  celldm(2)=   0.000000  celldm(3)=   0.000000
     celldm(4)=   0.000000  celldm(5)=   0.000000  celldm(6)=   0.000000

     crystal axes: (cart. coord. in units of alat)
               a(1) = (   1.000000   0.000000   0.000000 )  
               a(2) = (  -0.500000   0.866025   0.000000 )  
               a(3) = (   0.000000   0.000000   1.580000 )  

     reciprocal axes: (cart. coord. in units 2 pi/alat)
               b(1) = (  1.000000  0.577350 -0.000000 )  
               b(2) = (  0.000000  1.154701  0.000000 )  
               b(3) = (  0.000000 -0.000000  0.632911 )  


     PseudoPot. # 1 for Hf read from file:
     ../pseudo/Hf.pbe-spn-kjpaw_psl.1.0.0.UPF
     MD5 check sum: bf8a91e620b6303fe4cf956cf37905ef
     Pseudo is Projector augmented-wave + core cor, Zval = 12.0
     Generated using &quot;atomic&quot; code by A. Dal Corso  v.6.2.2
     Shape of augmentation charge: PSQ
     Using radial grid of 1271 points,  6 beta functions with: 
                l(1) =   0
                l(2) =   0
                l(3) =   1
                l(4) =   1
                l(5) =   2
                l(6) =   2
     Q(r) pseudized with 0 coefficients 


     atomic species   valence    mass     pseudopotential
     Hf               12.00   178.49000     Hf( 1.00)

     24 Sym. Ops., with inversion, found (12 have fractional translation)



   Cartesian axes

     site n.     atom                  positions (alat units)
         1        Hf     tau(   1) = (   0.0000000   0.0000000   0.0000000  )
         2        Hf     tau(   2) = (   0.0000000   0.5773503   0.7900000  )

     number of k points=    40  Marzari-Vanderbilt smearing, width (Ry)=  0.0200
                       cart. coord. in units 2pi/alat
        k(    1) = (   0.0000000   0.0000000   0.0000000), wk =   0.0052083
        k(    2) = (   0.0000000   0.0000000   0.1054852), wk =   0.0104167
        k(    3) = (   0.0000000   0.0000000   0.2109705), wk =   0.0104167
        k(    4) = (   0.0000000   0.0000000  -0.3164557), wk =   0.0052083
        k(    5) = (   0.0000000   0.1443376   0.0000000), wk =   0.0312500
        k(    6) = (   0.0000000   0.1443376   0.1054852), wk =   0.0625000
        k(    7) = (   0.0000000   0.1443376   0.2109705), wk =   0.0625000
        k(    8) = (   0.0000000   0.1443376  -0.3164557), wk =   0.0312500
        k(    9) = (   0.0000000   0.2886751   0.0000000), wk =   0.0312500
        k(   10) = (   0.0000000   0.2886751   0.1054852), wk =   0.0625000
        k(   11) = (   0.0000000   0.2886751   0.2109705), wk =   0.0625000
        k(   12) = (   0.0000000   0.2886751  -0.3164557), wk =   0.0312500
        k(   13) = (   0.0000000   0.4330127   0.0000000), wk =   0.0312500
        k(   14) = (   0.0000000   0.4330127   0.1054852), wk =   0.0625000
        k(   15) = (   0.0000000   0.4330127   0.2109705), wk =   0.0625000
        k(   16) = (   0.0000000   0.4330127  -0.3164557), wk =   0.0312500
        k(   17) = (   0.0000000  -0.5773503   0.0000000), wk =   0.0156250
        k(   18) = (   0.0000000  -0.5773503   0.1054852), wk =   0.0312500
        k(   19) = (   0.0000000  -0.5773503   0.2109705), wk =   0.0312500
        k(   20) = (   0.0000000  -0.5773503  -0.3164557), wk =   0.0156250
        k(   21) = (   0.1250000   0.2165064   0.0000000), wk =   0.0312500
        k(   22) = (   0.1250000   0.2165064   0.1054852), wk =   0.0625000
        k(   23) = (   0.1250000   0.2165064   0.2109705), wk =   0.0625000
        k(   24) = (   0.1250000   0.2165064  -0.3164557), wk =   0.0312500
        k(   25) = (   0.1250000   0.3608439   0.0000000), wk =   0.0625000
        k(   26) = (   0.1250000   0.3608439   0.1054852), wk =   0.1250000
        k(   27) = (   0.1250000   0.3608439   0.2109705), wk =   0.1250000
        k(   28) = (   0.1250000   0.3608439  -0.3164557), wk =   0.0625000
        k(   29) = (   0.1250000   0.5051815   0.0000000), wk =   0.0625000
        k(   30) = (   0.1250000   0.5051815   0.1054852), wk =   0.1250000
        k(   31) = (   0.1250000   0.5051815   0.2109705), wk =   0.1250000
        k(   32) = (   0.1250000   0.5051815  -0.3164557), wk =   0.0625000
        k(   33) = (   0.2500000   0.4330127   0.0000000), wk =   0.0312500
        k(   34) = (   0.2500000   0.4330127   0.1054852), wk =   0.0625000
        k(   35) = (   0.2500000   0.4330127   0.2109705), wk =   0.0625000
        k(   36) = (   0.2500000   0.4330127  -0.3164557), wk =   0.0312500
        k(   37) = (   0.2500000   0.5773503   0.0000000), wk =   0.0312500
        k(   38) = (   0.2500000   0.5773503   0.1054852), wk =   0.0625000
        k(   39) = (   0.2500000   0.5773503   0.2109705), wk =   0.0625000
        k(   40) = (   0.2500000   0.5773503  -0.3164557), wk =   0.0312500

     Dense  grid:    46905 G-vectors     FFT dimensions: (  45,  45,  64)

     Smooth grid:    16683 G-vectors     FFT dimensions: (  30,  30,  48)

     Estimated max dynamical RAM per process >     195.52 MB

     Initial potential from superposition of free atoms

     starting charge      23.9961, renormalised to      24.0000
     Starting wfcs are   20 randomized atomic wfcs
     Checking if some PAW data can be deallocated... 

     total cpu time spent up to now is        3.6 secs

     per-process dynamical memory:    58.6 Mb

     Self-consistent Calculation

     iteration #  1     ecut=    50.00 Ry     beta= 0.70
     Davidson diagonalization with overlap
     ethr =  1.00E-02,  avg # of iterations =  2.5

     Threshold (ethr) on eigenvalues was too large:
     Diagonalizing with lowered threshold

     Davidson diagonalization with overlap
     ethr =  1.70E-04,  avg # of iterations =  3.7

     total cpu time spent up to now is       14.3 secs

     total energy              =   -1392.40852401 Ry
     estimated scf accuracy    <       0.05562248 Ry

     iteration #  2     ecut=    50.00 Ry     beta= 0.70
     Davidson diagonalization with overlap
     ethr =  2.32E-04,  avg # of iterations =  2.0

     total cpu time spent up to now is       19.6 secs

     total energy              =   -1392.41619973 Ry
     estimated scf accuracy    <       0.00144586 Ry

     iteration #  3     ecut=    50.00 Ry     beta= 0.70
     Davidson diagonalization with overlap
     ethr =  6.02E-06,  avg # of iterations =  3.4

     total cpu time spent up to now is       25.0 secs

     total energy              =   -1392.41637107 Ry
     estimated scf accuracy    <       0.00007324 Ry

     iteration #  4     ecut=    50.00 Ry     beta= 0.70
     Davidson diagonalization with overlap
     ethr =  3.05E-07,  avg # of iterations =  4.2

     total cpu time spent up to now is       31.1 secs

     total energy              =   -1392.41639220 Ry
     estimated scf accuracy    <       0.00000134 Ry

     iteration #  5     ecut=    50.00 Ry     beta= 0.70
     Davidson diagonalization with overlap
     ethr =  5.58E-09,  avg # of iterations =  4.2

     total cpu time spent up to now is       37.4 secs

     total energy              =   -1392.41639291 Ry
     estimated scf accuracy    <       0.00000009 Ry

     iteration #  6     ecut=    50.00 Ry     beta= 0.70
     Davidson diagonalization with overlap
     ethr =  3.89E-10,  avg # of iterations =  3.0

     total cpu time spent up to now is       42.7 secs

     End of self-consistent calculation

          k = 0.0000 0.0000 0.0000 (  2045 PWs)   bands (ev):

   -49.8891 -49.8520 -18.7525 -18.2893 -18.2893 -18.2141 -18.2073 -18.2073
     5.5744   9.1627  12.6913  13.5915  13.5915  13.8272  14.2687  14.2687

          k = 0.0000 0.0000 0.1055 (  2063 PWs)   bands (ev):

   -49.8866 -49.8546 -18.7181 -18.2842 -18.2842 -18.2517 -18.2130 -18.2130
     5.7919   8.9578  12.4872  13.4845  13.4845  13.6372  14.1013  14.1013

          k = 0.0000 0.0000 0.2110 (  2062 PWs)   bands (ev):

   -49.8799 -49.8614 -18.6227 -18.3534 -18.2694 -18.2694 -18.2282 -18.2282
     6.4110   8.2874  12.3551  13.1629  13.3980  13.3980  13.7664  13.7665

          k = 0.0000 0.0000-0.3165 (  2098 PWs)   bands (ev):

   -49.8706 -49.8706 -18.4901 -18.4901 -18.2490 -18.2490 -18.2490 -18.2490
     7.3202   7.3202  12.6419  12.6419  13.4947  13.4947  13.4947  13.4947

          k = 0.0000 0.1443 0.0000 (  2073 PWs)   bands (ev):

   -49.8852 -49.8507 -18.7282 -18.3398 -18.3065 -18.2596 -18.2260 -18.2148
     5.9710   9.5521  12.2928  12.8670  13.8461  13.9579  14.3633  14.3763

          k = 0.0000 0.1443 0.1055 (  2059 PWs)   bands (ev):

   -49.8829 -49.8530 -18.6982 -18.3323 -18.3004 -18.2935 -18.2318 -18.2208
     6.1805   9.3431  12.0794  12.8961  13.7113  13.7715  13.8899  14.3723

          k = 0.0000 0.1443 0.2110 (  2068 PWs)   bands (ev):

   -49.8766 -49.8593 -18.6156 -18.3834 -18.3100 -18.2839 -18.2521 -18.2379
     6.7795   8.6454  12.0235  12.9572  13.1138  13.6584  13.6603  14.0446

          k = 0.0000 0.1443-0.3165 (  2054 PWs)   bands (ev):

   -49.8680 -49.8680 -18.5008 -18.5008 -18.2808 -18.2808 -18.2609 -18.2609
     7.6704   7.6704  12.4058  12.4058  13.3073  13.3073  13.7647  13.7647

          k = 0.0000 0.2887 0.0000 (  2082 PWs)   bands (ev):

   -49.8753 -49.8478 -18.6619 -18.4608 -18.3816 -18.3456 -18.2614 -18.2342
     7.0538  10.3933  11.5082  12.0477  13.1967  13.7491  13.8711  15.0105

          k = 0.0000 0.2887 0.1055 (  2074 PWs)   bands (ev):

   -49.8735 -49.8496 -18.6506 -18.4447 -18.4072 -18.3382 -18.2638 -18.2416
     7.2309  10.1906  11.3721  12.1157  13.1700  13.6390  13.9106  15.0622

          k = 0.0000 0.2887 0.2110 (  2070 PWs)   bands (ev):

   -49.8684 -49.8547 -18.6146 -18.4828 -18.3863 -18.3177 -18.2847 -18.2621
     7.7429   9.4462  11.5277  12.2364  12.8815  13.3882  14.0682  14.7873

          k = 0.0000 0.2887-0.3165 (  2064 PWs)   bands (ev):

   -49.8616 -49.8616 -18.5549 -18.5549 -18.3296 -18.3296 -18.2900 -18.2900
     8.5259   8.5259  11.9688  11.9688  12.9801  12.9801  14.3768  14.3768

          k = 0.0000 0.4330 0.0000 (  2072 PWs)   bands (ev):

   -49.8642 -49.8461 -18.5823 -18.5771 -18.4974 -18.3825 -18.3152 -18.2547
     8.4615  10.4796  10.8762  11.6845  13.3208  13.4213  13.4776  16.5526

          k = 0.0000 0.4330 0.1055 (  2070 PWs)   bands (ev):

   -49.8630 -49.8473 -18.6368 -18.5371 -18.4903 -18.3739 -18.3071 -18.2634
     8.5457  10.3344  10.9612  11.7323  13.1206  13.5546  13.5765  16.4206

          k = 0.0000 0.4330 0.2110 (  2073 PWs)   bands (ev):

   -49.8597 -49.8506 -18.6587 -18.5924 -18.4102 -18.3508 -18.3088 -18.2870
     8.8120   9.8456  11.2968  11.8571  12.9683  13.3205  14.0304  15.6231

          k = 0.0000 0.4330-0.3165 (  2076 PWs)   bands (ev):

   -49.8551 -49.8551 -18.6412 -18.6412 -18.3436 -18.3436 -18.3190 -18.3190
     9.2673   9.2673  11.7238  11.7238  13.0149  13.0149  14.7430  14.7430

          k = 0.0000-0.5774 0.0000 (  2104 PWs)   bands (ev):

   -49.8586 -49.8464 -18.6328 -18.5444 -18.5273 -18.3977 -18.3523 -18.2639
     9.3356  10.1682  10.6434  11.4982  13.1703  13.2590  13.9087  17.4798

          k = 0.0000-0.5774 0.1055 (  2070 PWs)   bands (ev):

   -49.8578 -49.8472 -18.6641 -18.5771 -18.4774 -18.3885 -18.3361 -18.2726
     9.2583  10.1245  10.9584  11.3561  13.3332  13.4347  13.7031  17.1083

          k = 0.0000-0.5774 0.2110 (  2080 PWs)   bands (ev):

   -49.8555 -49.8494 -18.6913 -18.6373 -18.4009 -18.3643 -18.3229 -18.2974
     9.2505   9.8508  11.3925  11.5343  13.2892  13.4415  13.9538  15.8916

          k = 0.0000-0.5774-0.3165 (  2076 PWs)   bands (ev):

   -49.8525 -49.8525 -18.6817 -18.6817 -18.3438 -18.3438 -18.3309 -18.3309
     9.4699   9.4699  11.6736  11.6736  13.2418  13.2418  14.7903  14.7903

          k = 0.1250 0.2165 0.0000 (  2067 PWs)   bands (ev):

   -49.8783 -49.8485 -18.6827 -18.4093 -18.3791 -18.3069 -18.2498 -18.2389
     6.7168  10.2248  11.7425  12.1707  13.3382  13.6848  14.2287  14.7221

          k = 0.1250 0.2165 0.1055 (  2063 PWs)   bands (ev):

   -49.8763 -49.8505 -18.6636 -18.3955 -18.3908 -18.3227 -18.2494 -18.2459
     6.9072  10.0112  11.5572  12.2381  13.4383  13.5293  14.0074  14.7375

          k = 0.1250 0.2165 0.2110 (  2063 PWs)   bands (ev):

   -49.8709 -49.8560 -18.6100 -18.4491 -18.3600 -18.3224 -18.2652 -18.2642
     7.4557   9.2549  11.6458  12.3877  12.9521  13.4050  14.0007  14.4931

          k = 0.1250 0.2165-0.3165 (  2064 PWs)   bands (ev):

   -49.8634 -49.8634 -18.5325 -18.5325 -18.3217 -18.3217 -18.2822 -18.2822
     8.2897   8.2897  12.0926  12.0926  13.0015  13.0015  14.2040  14.2040

          k = 0.1250 0.3608 0.0000 (  2076 PWs)   bands (ev):

   -49.8677 -49.8463 -18.6054 -18.5205 -18.4709 -18.3682 -18.2961 -18.2727
     8.0119  10.8629  11.1233  11.6171  13.1136  13.1436  13.7353  15.5108

          k = 0.1250 0.3608 0.1055 (  2070 PWs)   bands (ev):

   -49.8662 -49.8478 -18.6219 -18.5076 -18.4624 -18.3757 -18.2919 -18.2741
     8.1493  10.6496  11.1152  11.7096  12.9372  13.4082  13.5820  15.4381

          k = 0.1250 0.3608 0.2110 (  2073 PWs)   bands (ev):

   -49.8623 -49.8517 -18.6270 -18.5501 -18.4054 -18.3660 -18.3066 -18.2785
     8.5510   9.9462  11.4194  11.8817  12.7327  13.1267  13.9051  15.1352

          k = 0.1250 0.3608-0.3165 (  2076 PWs)   bands (ev):

   -49.8570 -49.8570 -18.6003 -18.6003 -18.3634 -18.3634 -18.3032 -18.3032
     9.1793   9.1793  11.8156  11.8156  12.7253  12.7253  14.5247  14.5247

          k = 0.1250 0.5052 0.0000 (  2074 PWs)   bands (ev):

   -49.8586 -49.8463 -18.6061 -18.5280 -18.5229 -18.4167 -18.3514 -18.2942
     9.3356  10.5572  10.7444  11.4229  13.0040  13.2446  13.8224  16.6686

          k = 0.1250 0.5052 0.1055 (  2074 PWs)   bands (ev):

   -49.8578 -49.8472 -18.6385 -18.5595 -18.4808 -18.4043 -18.3397 -18.2957
     9.3326  10.4600  10.9427  11.4554  12.9872  13.1608  13.8527  16.4981

          k = 0.1250 0.5052 0.2110 (  2079 PWs)   bands (ev):

   -49.8555 -49.8494 -18.6663 -18.6164 -18.4313 -18.3678 -18.3422 -18.2924
     9.4213  10.1164  11.3377  11.7552  12.7714  12.9272  14.1383  15.6293

          k = 0.1250 0.5052-0.3165 (  2078 PWs)   bands (ev):

   -49.8525 -49.8525 -18.6584 -18.6584 -18.3905 -18.3905 -18.3088 -18.3088
     9.6978   9.6978  11.7923  11.7923  12.6673  12.6673  14.7424  14.7424

          k = 0.2500 0.4330 0.0000 (  2079 PWs)   bands (ev):

   -49.8586 -49.8463 -18.5604 -18.5288 -18.5218 -18.4199 -18.3507 -18.3404
     9.3605  10.8638  11.1409  11.2231  12.7726  13.2863  13.5714  16.0859

          k = 0.2500 0.4330 0.1055 (  2075 PWs)   bands (ev):

   -49.8578 -49.8471 -18.5922 -18.5677 -18.4479 -18.4477 -18.3465 -18.3188
     9.4339  10.7137  11.2113  11.4168  12.7576  12.9261  13.6500  16.0110

          k = 0.2500 0.4330 0.2110 (  2070 PWs)   bands (ev):

   -49.8555 -49.8494 -18.6293 -18.5987 -18.4536 -18.4063 -18.3386 -18.2919
     9.6552  10.4025  11.4266  11.7492  12.4128  12.6226  13.8567  15.3361

          k = 0.2500 0.4330-0.3165 (  2100 PWs)   bands (ev):

   -49.8525 -49.8525 -18.6292 -18.6292 -18.4287 -18.4287 -18.3014 -18.3014
    10.0062  10.0062  11.7463  11.7463  12.3419  12.3419  14.4328  14.4328

          k = 0.2500 0.5774 0.0000 (  2079 PWs)   bands (ev):

   -49.8531 -49.8481 -18.5835 -18.4964 -18.4773 -18.4717 -18.3987 -18.3723
    10.2906  10.7772  10.9899  11.0517  12.7923  12.9166  14.1432  16.7645

          k = 0.2500 0.5774 0.1055 (  2087 PWs)   bands (ev):

   -49.8528 -49.8484 -18.5971 -18.5414 -18.5176 -18.3993 -18.3964 -18.3468
    10.2514  10.9585  10.9783  11.1095  12.6829  12.7092  14.1487  16.6222

          k = 0.2500 0.5774 0.2110 (  2078 PWs)   bands (ev):

   -49.8519 -49.8493 -18.6279 -18.6012 -18.5028 -18.4248 -18.3331 -18.3054
    10.2847  10.7411  11.3845  11.3848  12.3460  12.3780  14.2686  15.5148

          k = 0.2500 0.5774-0.3165 (  2080 PWs)   bands (ev):

   -49.8506 -49.8506 -18.6332 -18.6332 -18.4650 -18.4650 -18.2987 -18.2987
    10.4680  10.4680  11.6597  11.6597  12.1056  12.1056  14.6914  14.6914

     the Fermi energy is    12.4412 ev

!    total energy              =   -1392.41639293 Ry
     total all-electron energy =    -60313.940763 Ry
     estimated scf accuracy    <          1.8E-09 Ry
     smearing contrib. (-TS)   =       0.00034048 Ry
     internal energy E=F+TS    =   -1392.41673341 Ry

     The total energy is F=E-TS. E is the sum of the following terms:
     one-electron contribution =     -43.17121358 Ry
     hartree contribution      =      30.85218645 Ry
     xc contribution           =     -82.58897370 Ry
     ewald contribution        =    -149.08995813 Ry
     one-center paw contrib.   =   -1148.41877445 Ry

     convergence has been achieved in   6 iterations

     Forces acting on atoms (cartesian axes, Ry/au):

     atom    1 type  1   force =     0.00000000   -0.00000000    0.00000000
     atom    2 type  1   force =     0.00000000    0.00000000    0.00000000

     Total force =     0.000000     Total SCF correction =     0.000000


     Computing stress (Cartesian axis) and pressure

          total   stress  (Ry/bohr**3)                   (kbar)     P=     -126.04
  -0.00084698   0.00000000   0.00000000         -124.60        0.00        0.00
   0.00000000  -0.00084698   0.00000000            0.00     -124.60        0.00
   0.00000000   0.00000000  -0.00087654            0.00        0.00     -128.94


     Writing all to output data dir ./tmp_3.350/hf_3.350.save/ :
     XML data file, charge density, pseudopotentials, collected wavefunctions

     init_run     :     67.58s CPU      3.59s WALL (       1 calls)
     electrons    :    843.88s CPU     39.10s WALL (       1 calls)
     forces       :      7.14s CPU      0.46s WALL (       1 calls)
     stress       :      2.33s CPU      1.48s WALL (       1 calls)

     Called by init_run:
     wfcinit      :     52.56s CPU      2.37s WALL (       1 calls)
     potinit      :      5.83s CPU      0.44s WALL (       1 calls)
     hinit0       :      8.89s CPU      0.63s WALL (       1 calls)

     Called by electrons:
     c_bands      :    712.84s CPU     31.58s WALL (       7 calls)
     sum_band     :    118.61s CPU      5.87s WALL (       7 calls)
     v_of_rho     :      1.58s CPU      0.08s WALL (       7 calls)
     newd         :      1.70s CPU      0.82s WALL (       7 calls)
     PAW_pot      :     11.67s CPU      1.05s WALL (       7 calls)
     mix_rho      :      0.18s CPU      0.01s WALL (       7 calls)

     Called by c_bands:
     init_us_2    :      6.50s CPU      0.23s WALL (     680 calls)
     cegterg      :    697.26s CPU     31.19s WALL (     280 calls)

     Called by *egterg:
     cdiaghg      :      6.65s CPU      0.19s WALL (    1161 calls)
     h_psi        :    666.47s CPU     28.29s WALL (    1241 calls)
     s_psi        :     13.69s CPU      1.23s WALL (    1241 calls)
     g_psi        :      0.30s CPU      0.04s WALL (     921 calls)

     Called by h_psi:
     h_psi:calbec :     31.57s CPU      1.22s WALL (    1241 calls)
     vloc_psi     :    583.34s CPU     25.73s WALL (    1241 calls)
                                        0.00s GPU  (    1241 calls)
     add_vuspsi   :     50.23s CPU      1.18s WALL (    1241 calls)

     General routines
     calbec       :     48.68s CPU      2.37s WALL (    2201 calls)
     fft          :      9.38s CPU      0.50s WALL (     115 calls)
     ffts         :      3.41s CPU      0.23s WALL (      14 calls)
     fftw         :    645.35s CPU     28.42s WALL (   29372 calls)
     interpolate  :      3.32s CPU      0.24s WALL (       7 calls)

     Parallel routines

     PWSCF        :  15m21.42s CPU     44.70s WALL


   This run was terminated on:  23:33:22   5Sep2026            

=------------------------------------------------------------------------------=
   JOB DONE.
=------------------------------------------------------------------------------=
