
     Program PWSCF v.7.5 starts on  8Sep2026 at 20:55:51 

     This program is part of the open-source Quantum ESPRESSO suite
     for quantum simulation of materials; please cite
         "P. Giannozzi et al., J. Phys.:Condens. Matter 21 395502 (2009);
         "P. Giannozzi et al., J. Phys.:Condens. Matter 29 465901 (2017);
         "P. Giannozzi et al., J. Chem. Phys. 152 154105 (2020);
          URL http://www.quantum-espresso.org", 
     in publications or presentations arising from this work. More details at
     http://www.quantum-espresso.org/quote

     Parallel version (MPI & OpenMP), running on       2 processor cores
     Number of MPI processes:                 2
     Threads/MPI process:                     1

     MPI processes distributed on     1 nodes
     14687 MiB available memory on the printing compute node when the environment starts

     Waiting for input...
     Reading input from standard input

     Current dimensions of program PWSCF are:
     Max number of different atomic species (ntypx) = 10
     Max number of k-points (npk) =  40000
     Max angular momentum in pseudopotentials (lmaxx) =  4
     file Ag.pbe-n-kjpaw_psl.1.0.0.UPF: wavefunction(s)  5S 5P renormalized
     file O.pbe-n-kjpaw_psl.1.0.0.UPF: wavefunction(s)  2S 2P renormalized

     R & G space division:  proc/nbgrp/npool/nimage =       2
     Subspace diagonalization in iterative solution of the eigenvalue problem:
     a serial algorithm will be used


     Parallelization info
     --------------------
     sticks:   dense  smooth     PW     G-vecs:    dense   smooth      PW
     Min        1268     632    186                48050    16940    2724
     Max        1269     633    187                48055    16941    2725
     Sum        2537    1265    373                96105    33881    5449

     Using Slab Decomposition



     bravais-lattice index     =            1
     lattice parameter (alat)  =       8.9195  a.u.
     unit-cell volume          =     709.6147 (a.u.)^3
     number of atoms/cell      =            6
     number of atomic types    =            2
     number of electrons       =        56.00
     number of Kohn-Sham states=           34
     kinetic-energy cutoff     =      50.0000  Ry
     charge density cutoff     =     400.0000  Ry
     scf convergence threshold =      1.0E-07
     mixing beta               =       0.7000
     number of iterations used =            8  plain     mixing
     energy convergence thresh.=      1.0E-05
     force convergence thresh. =      1.0E-04
     press convergence thresh. =      5.0E-01
     Exchange-correlation= SLA  PW   PBX  PBC
                           (   1   4   3   4   0   0   0)
     nstep                     =           50


     celldm(1)=   8.919507  celldm(2)=   0.000000  celldm(3)=   0.000000
     celldm(4)=   0.000000  celldm(5)=   0.000000  celldm(6)=   0.000000

     crystal axes: (cart. coord. in units of alat)
               a(1) = (   1.000000   0.000000   0.000000 )  
               a(2) = (   0.000000   1.000000   0.000000 )  
               a(3) = (   0.000000   0.000000   1.000000 )  

     reciprocal axes: (cart. coord. in units 2 pi/alat)
               b(1) = (  1.000000  0.000000  0.000000 )  
               b(2) = (  0.000000  1.000000  0.000000 )  
               b(3) = (  0.000000  0.000000  1.000000 )  


     PseudoPot. # 1 for Ag read from file:
     /home/jdmin2003/qe-work/pseudo/Ag.pbe-n-kjpaw_psl.1.0.0.UPF
     MD5 check sum: 51099775af2a3182a6a1caffb86952a3
     Pseudo is Projector augmented-wave + core cor, Zval = 11.0
     Generated using &quot;atomic&quot; code by A. Dal Corso  v.6.2.2
     Shape of augmentation charge: PSQ
     Using radial grid of 1237 points,  6 beta functions with: 
                l(1) =   0
                l(2) =   0
                l(3) =   1
                l(4) =   1
                l(5) =   2
                l(6) =   2
     Q(r) pseudized with 0 coefficients 


     PseudoPot. # 2 for O  read from file:
     /home/jdmin2003/qe-work/pseudo/O.pbe-n-kjpaw_psl.1.0.0.UPF
     MD5 check sum: e99d9cef9b487d1ca56f5b95ecd0fd7a
     Pseudo is Projector augmented-wave + core cor, Zval =  6.0
     Generated using &quot;atomic&quot; code by A. Dal Corso  v.6.3
     Shape of augmentation charge: PSQ
     Using radial grid of 1095 points,  4 beta functions with: 
                l(1) =   0
                l(2) =   0
                l(3) =   1
                l(4) =   1
     Q(r) pseudized with 0 coefficients 


     atomic species   valence    mass     pseudopotential
     Ag               11.00   107.86820     Ag( 1.00)
     O                 6.00    15.99940     O ( 1.00)

     48 Sym. Ops., with inversion, found (24 have fractional translation)



   Cartesian axes

     site n.     atom                  positions (alat units)
         1        O      tau(   1) = (   0.0000000   0.0000000   0.0000000  )
         2        O      tau(   2) = (   0.5000000   0.5000000   0.5000000  )
         3        Ag     tau(   3) = (   0.2500000   0.2500000   0.2500000  )
         4        Ag     tau(   4) = (   0.7500000   0.7500000   0.2500000  )
         5        Ag     tau(   5) = (   0.7500000   0.2500000   0.7500000  )
         6        Ag     tau(   6) = (   0.2500000   0.7500000   0.7500000  )

     number of k points=    20  Marzari-Vanderbilt smearing, width (Ry)=  0.0100
                       cart. coord. in units 2pi/alat
        k(    1) = (   0.0000000   0.0000000   0.0000000), wk =   0.0092593
        k(    2) = (   0.0000000   0.0000000   0.1666667), wk =   0.0555556
        k(    3) = (   0.0000000   0.0000000   0.3333333), wk =   0.0555556
        k(    4) = (   0.0000000   0.0000000  -0.5000000), wk =   0.0277778
        k(    5) = (   0.0000000   0.1666667   0.1666667), wk =   0.1111111
        k(    6) = (   0.0000000   0.1666667   0.3333333), wk =   0.2222222
        k(    7) = (   0.0000000   0.1666667  -0.5000000), wk =   0.1111111
        k(    8) = (   0.0000000   0.3333333   0.3333333), wk =   0.1111111
        k(    9) = (   0.0000000   0.3333333  -0.5000000), wk =   0.1111111
        k(   10) = (   0.0000000  -0.5000000  -0.5000000), wk =   0.0277778
        k(   11) = (   0.1666667   0.1666667   0.1666667), wk =   0.0740741
        k(   12) = (   0.1666667   0.1666667   0.3333333), wk =   0.2222222
        k(   13) = (   0.1666667   0.1666667  -0.5000000), wk =   0.1111111
        k(   14) = (   0.1666667   0.3333333   0.3333333), wk =   0.2222222
        k(   15) = (   0.1666667   0.3333333  -0.5000000), wk =   0.2222222
        k(   16) = (   0.1666667  -0.5000000  -0.5000000), wk =   0.0555556
        k(   17) = (   0.3333333   0.3333333   0.3333333), wk =   0.0740741
        k(   18) = (   0.3333333   0.3333333  -0.5000000), wk =   0.1111111
        k(   19) = (   0.3333333  -0.5000000  -0.5000000), wk =   0.0555556
        k(   20) = (  -0.5000000  -0.5000000  -0.5000000), wk =   0.0092593

     Dense  grid:    96105 G-vectors     FFT dimensions: (  60,  60,  60)

     Smooth grid:    33881 G-vectors     FFT dimensions: (  48,  48,  48)

     Estimated max dynamical RAM per process >     208.35 MB

     Estimated total dynamical RAM >     416.70 MB

     Initial potential from superposition of free atoms

     starting charge      55.9984, renormalised to      56.0000
     Starting wfcs are   44 randomized atomic wfcs
     Checking if some PAW data can be deallocated... 

     total cpu time spent up to now is        2.2 secs

     per-process dynamical memory:    65.9 Mb

     Self-consistent Calculation

     iteration #  1     ecut=    50.00 Ry     beta= 0.70
     Davidson diagonalization with overlap
     ethr =  1.00E-02,  avg # of iterations =  3.1

     total cpu time spent up to now is        5.2 secs

     WARNING: integrated charge=    56.00377861, expected=    56.00000000

     total energy              =   -1503.75685092 Ry
     estimated scf accuracy    <       0.82302516 Ry

     iteration #  2     ecut=    50.00 Ry     beta= 0.70
     Davidson diagonalization with overlap
     ethr =  1.47E-03,  avg # of iterations =  4.8
     Minimization algorithm failed to find Fermi energy: reverting to bisection
     Possible cause: smearing is larger than the electronic band-gap.

     total cpu time spent up to now is        9.3 secs

     WARNING: integrated charge=    56.00284763, expected=    56.00000000

     total energy              =   -1503.79411408 Ry
     estimated scf accuracy    <       2.74447552 Ry

     iteration #  3     ecut=    50.00 Ry     beta= 0.70
     Davidson diagonalization with overlap
     ethr =  1.47E-03,  avg # of iterations =  4.5

     total cpu time spent up to now is       12.8 secs

     WARNING: integrated charge=    56.00189534, expected=    56.00000000

     total energy              =   -1504.27025779 Ry
     estimated scf accuracy    <       0.02451068 Ry

     iteration #  4     ecut=    50.00 Ry     beta= 0.70
     Davidson diagonalization with overlap
     ethr =  4.38E-05,  avg # of iterations =  4.7

     total cpu time spent up to now is       16.4 secs

     WARNING: integrated charge=    56.00004466, expected=    56.00000000

     total energy              =   -1504.27789077 Ry
     estimated scf accuracy    <       0.00457143 Ry

     iteration #  5     ecut=    50.00 Ry     beta= 0.70
     Davidson diagonalization with overlap
     ethr =  8.16E-06,  avg # of iterations =  3.0

     total cpu time spent up to now is       19.8 secs

     WARNING: integrated charge=    55.99994647, expected=    56.00000000

     total energy              =   -1504.27912088 Ry
     estimated scf accuracy    <       0.00039455 Ry

     iteration #  6     ecut=    50.00 Ry     beta= 0.70
     Davidson diagonalization with overlap
     ethr =  7.05E-07,  avg # of iterations =  4.8

     total cpu time spent up to now is       23.6 secs

     total energy              =   -1504.27925282 Ry
     estimated scf accuracy    <       0.00009687 Ry

     iteration #  7     ecut=    50.00 Ry     beta= 0.70
     Davidson diagonalization with overlap
     ethr =  1.73E-07,  avg # of iterations =  2.3

     total cpu time spent up to now is       27.0 secs

     WARNING: integrated charge=    56.00000826, expected=    56.00000000

     total energy              =   -1504.27927756 Ry
     estimated scf accuracy    <       0.00000189 Ry

     iteration #  8     ecut=    50.00 Ry     beta= 0.70
     Davidson diagonalization with overlap
     ethr =  3.37E-09,  avg # of iterations =  4.8

     total cpu time spent up to now is       31.3 secs

     total energy              =   -1504.27927923 Ry
     estimated scf accuracy    <       0.00000119 Ry

     iteration #  9     ecut=    50.00 Ry     beta= 0.70
     Davidson diagonalization with overlap
     ethr =  2.13E-09,  avg # of iterations =  1.1

     total cpu time spent up to now is       33.9 secs

     total energy              =   -1504.27927905 Ry
     estimated scf accuracy    <       0.00000042 Ry

     iteration # 10     ecut=    50.00 Ry     beta= 0.70
     Davidson diagonalization with overlap
     ethr =  7.49E-10,  avg # of iterations =  2.1

     total cpu time spent up to now is       37.8 secs

     End of self-consistent calculation

          k = 0.0000 0.0000 0.0000 (  4169 PWs)   bands (ev):

   -10.9204 -10.2284   1.1145   1.1145   1.1145   3.3598   3.7184   3.7184
     3.9310   3.9310   3.9310   4.3034   4.3034   4.3034   4.8418   4.8418
     5.0120   5.0120   5.0120   5.2123   5.2123   5.2123   5.3892   5.3892
     5.3892   8.0270   8.0270   8.0270   8.0532  10.0278  10.0278  15.3023
    15.3023  15.3023

          k = 0.0000 0.0000 0.1667 (  4232 PWs)   bands (ev):

   -10.8766 -10.2776   1.2086   1.2086   1.2467   3.4469   3.5156   3.5156
     3.5335   3.7899   3.9663   4.2199   4.3921   4.3921   4.8672   4.9245
     4.9425   5.0905   5.0905   5.1485   5.2404   5.3257   5.3257   5.5303
     5.5303   7.2925   7.9419   7.9419   8.3805  10.4083  10.6080  14.7910
    15.2225  15.2226

          k = 0.0000 0.0000 0.3333 (  4216 PWs)   bands (ev):

   -10.7551 -10.4097   1.4568   1.4568   1.6256   2.8748   2.9104   2.9104
     3.8349   4.0039   4.0459   4.2603   4.5523   4.5523   4.7579   4.7733
     4.9365   5.0067   5.0067   5.0390   5.1325   5.2837   5.2837   6.1061
     6.1061   6.1935   7.7219   7.7219   9.1734  10.8078  11.3971  14.3319
    15.0621  15.0621

          k = 0.0000 0.0000-0.5000 (  4220 PWs)   bands (ev):

   -10.5850 -10.5850   1.6530   1.6530   2.1981   2.1981   2.5846   2.5846
     4.0686   4.0686   4.3461   4.3461   4.4897   4.4897   4.6959   4.6959
     4.8831   4.8831   5.0325   5.0325   5.2674   5.2674   5.3758   5.3758
     6.4119   6.4119   7.5587   7.5587  10.1098  10.1098  12.7601  12.7601
    14.9810  14.9810

          k = 0.0000 0.1667 0.1667 (  4230 PWs)   bands (ev):

   -10.8380 -10.3194   1.1961   1.2912   1.4650   3.1002   3.2840   3.4641
     3.6157   3.8457   4.0276   4.2525   4.3524   4.4470   4.8470   4.8618
     4.9174   5.0321   5.1503   5.2174   5.2298   5.2663   5.3509   5.6107
     5.7012   7.1194   7.6080   7.8612   8.6683  10.7205  10.9213  14.0995
    14.7857  15.3070

          k = 0.0000 0.1667 0.3333 (  4216 PWs)   bands (ev):

   -10.7315 -10.4322   1.3621   1.4992   1.8613   2.5597   2.8339   3.0891
     3.9170   4.0184   4.1175   4.3046   4.4302   4.5777   4.7171   4.7614
     4.8325   4.9121   5.0424   5.1187   5.1550   5.1660   5.4397   6.0694
     6.1261   6.3392   7.4905   7.6515   9.3578  10.8526  11.4789  13.5755
    14.2245  15.1120

          k = 0.0000 0.1667-0.5000 (  4242 PWs)   bands (ev):

   -10.5834 -10.5834   1.5897   1.5897   2.2252   2.2252   2.6578   2.6578
     4.1397   4.1397   4.3216   4.3216   4.4681   4.4681   4.6103   4.6103
     4.9088   4.9088   5.0399   5.0399   5.0939   5.0939   5.6568   5.6568
     6.3778   6.3778   7.4603   7.4603  10.1837  10.1837  12.4234  12.4234
    14.9922  14.9927

          k = 0.0000 0.3333 0.3333 (  4244 PWs)   bands (ev):

   -10.6672 -10.4944   1.3716   1.5701   2.1916   2.2649   2.6809   3.0520
     4.0779   4.1312   4.2810   4.3568   4.4136   4.5390   4.5993   4.6441
     4.7477   4.9416   4.9421   5.0129   5.0750   5.1462   5.7005   6.1633
     6.2754   6.2996   7.2350   7.4752   9.7583  10.6353  11.6150  12.5815
    14.5210  14.9785

          k = 0.0000 0.3333-0.5000 (  4260 PWs)   bands (ev):

   -10.5803 -10.5803   1.5004   1.5004   2.2316   2.2316   2.8109   2.8109
     4.2709   4.2709   4.2883   4.2883   4.5002   4.5002   4.5234   4.5234
     4.8084   4.8084   4.9860   4.9860   5.0609   5.0609   5.9387   5.9387
     6.3583   6.3583   7.2865   7.2865  10.1959  10.1959  11.9226  11.9226
    14.9342  14.9342

          k = 0.0000-0.5000-0.5000 (  4260 PWs)   bands (ev):

   -10.5787 -10.5787   1.4666   1.4666   2.2235   2.2235   2.8861   2.8861
     4.2690   4.2690   4.3046   4.3046   4.5616   4.5616   4.5961   4.5961
     4.6832   4.6832   4.9305   4.9305   5.0458   5.0458   6.0247   6.0247
     6.3949   6.3949   7.2068   7.2068  10.1210  10.1210  11.7689  11.7689
    14.8326  14.8326

          k = 0.1667 0.1667 0.1667 (  4235 PWs)   bands (ev):

   -10.8069 -10.3517   1.2664   1.2664   1.6756   2.7746   3.3186   3.3186
     3.7053   3.9180   3.9180   4.3892   4.4285   4.4285   4.7953   4.7953
     4.9528   4.9528   5.0630   5.2089   5.2089   5.2852   5.5573   5.6722
     5.6722   7.2349   7.2349   7.7319   8.9302  11.0529  11.0529  13.3857
    14.6925  14.6925

          k = 0.1667 0.1667 0.3333 (  4229 PWs)   bands (ev):

   -10.7255 -10.4356   1.3712   1.4372   2.0687   2.3115   2.9626   3.0853
     3.9260   4.0198   4.0779   4.3943   4.5312   4.5661   4.6744   4.6887
     4.8014   4.8862   4.9389   5.1486   5.1563   5.2311   5.5436   5.9816
     6.0532   6.5502   7.3844   7.4945   9.5476  11.0286  11.4613  13.2762
    13.4218  14.3798

          k = 0.1667 0.1667-0.5000 (  4248 PWs)   bands (ev):

   -10.6561 -10.5063   1.5207   1.5485   1.9786   2.4944   2.7486   2.7685
     4.0427   4.2108   4.2306   4.3942   4.4137   4.5024   4.6394   4.6451
     4.7591   4.8434   5.0189   5.0856   5.1207   5.1963   5.5705   5.9702
     6.1507   6.5039   7.3098   7.4244  10.1902  10.4348  11.9195  12.6743
    13.7837  13.9867

          k = 0.1667 0.3333 0.3333 (  4246 PWs)   bands (ev):

   -10.7131 -10.4429   1.3670   1.4671   1.9571   2.4673   2.9250   3.1023
     3.9929   4.0414   4.1079   4.5160   4.5326   4.5828   4.6230   4.6589
     4.6622   4.8257   4.9207   5.0970   5.1837   5.1891   5.7356   5.8440
     6.2182   6.6667   7.1794   7.3222   9.9144  10.9337  11.5235  12.5003
    13.2185  13.9524

          k = 0.1667 0.3333-0.5000 (  4256 PWs)   bands (ev):

   -10.7066 -10.4468   1.4371   1.4495   1.8021   2.7033   2.9515   2.9599
     4.0457   4.1183   4.1487   4.4482   4.4588   4.5420   4.5889   4.6779
     4.7026   4.7832   5.0121   5.0861   5.1173   5.1702   5.7100   5.8822
     6.4034   6.5956   7.0575   7.3327  10.0741  10.7661  11.5630  12.1071
    13.5555  13.7169

          k = 0.1667-0.5000-0.5000 (  4252 PWs)   bands (ev):

   -10.7246 -10.4243   1.4046   1.4046   1.7354   2.7823   3.0532   3.0532
     4.0285   4.1362   4.1362   4.4728   4.4728   4.5018   4.5152   4.6374
     4.8173   4.8173   4.9932   5.0047   5.0997   5.1589   5.7797   5.7797
     6.6519   6.6519   6.9194   7.2864   9.8286  11.0049  11.5944  11.5944
    13.7389  13.7389

          k = 0.3333 0.3333 0.3333 (  4254 PWs)   bands (ev):

   -10.7722 -10.3726   1.3566   1.3566   1.6424   2.8691   3.2133   3.2133
     3.9270   3.9687   3.9687   4.4990   4.4990   4.5372   4.5372   4.6536
     4.8678   4.8932   4.8932   5.2097   5.2097   5.2398   5.5972   5.5972
     6.3657   6.9534   7.1135   7.1135  10.2725  11.2031  11.2031  12.0553
    13.0334  13.0334

          k = 0.3333 0.3333-0.5000 (  4226 PWs)   bands (ev):

   -10.7951 -10.3441   1.3417   1.3510   1.4936   3.1409   3.2578   3.2738
     3.9262   3.9380   3.9718   4.4470   4.4577   4.4903   4.5143   4.5860
     4.9045   4.9191   5.0033   5.2034   5.2207   5.2512   5.4550   5.5522
     6.5969   6.8879   6.9041   7.3310  10.3727  10.9554  11.1013  12.1941
    12.7919  13.1257

          k = 0.3333-0.5000-0.5000 (  4232 PWs)   bands (ev):

   -10.8267 -10.3053   1.3014   1.3014   1.3856   3.3703   3.4331   3.4331
     3.8321   3.9382   3.9382   4.3523   4.4715   4.4715   4.4903   4.5098
     4.9793   4.9793   4.9883   5.1634   5.2502   5.2708   5.3991   5.3991
     6.4769   7.0848   7.0848   7.3184  10.2235  10.9995  10.9995  12.0880
    13.0345  13.0345

          k =-0.5000-0.5000-0.5000 (  4272 PWs)   bands (ev):

   -10.8631 -10.2604   1.2567   1.2567   1.2567   3.7641   3.7641   3.7641
     3.7669   3.7669   3.7669   4.2970   4.2970   4.4603   4.4603   4.4603
     4.9933   4.9933   4.9933   5.2259   5.2259   5.2259   5.3073   5.3073
     6.2788   7.3322   7.3322   7.3322  10.5977  10.5977  10.5977  12.8995
    12.8995  12.8995

     the Fermi energy is     8.0564 ev

!    total energy              =   -1504.27927916 Ry
     total all-electron energy =    -42829.837275 Ry
     estimated scf accuracy    <       0.00000002 Ry
     smearing contrib. (-TS)   =       0.00026885 Ry
     internal energy E=F+TS    =   -1504.27954802 Ry

     The total energy is F=E-TS. E is the sum of the following terms:
     one-electron contribution =     -68.50449010 Ry
     hartree contribution      =      98.69707293 Ry
     xc contribution           =    -104.09107391 Ry
     ewald contribution        =    -301.90110903 Ry
     one-center paw contrib.   =   -1128.47994792 Ry

     convergence has been achieved in  10 iterations

     Forces acting on atoms (cartesian axes, Ry/au):

     atom    1 type  2   force =     0.00000000    0.00000000    0.00000000
     atom    2 type  2   force =     0.00000000    0.00000000    0.00000000
     atom    3 type  1   force =     0.00000000   -0.00000000   -0.00000000
     atom    4 type  1   force =    -0.00000000    0.00000000   -0.00000000
     atom    5 type  1   force =     0.00000000   -0.00000000   -0.00000000
     atom    6 type  1   force =     0.00000000    0.00000000   -0.00000000

     Total force =     0.000000     Total SCF correction =     0.000000


     Computing stress (Cartesian axis) and pressure

          total   stress  (Ry/bohr**3)                   (kbar)     P=       44.87
   0.00030500   0.00000000   0.00000000           44.87        0.00        0.00
   0.00000000   0.00030500   0.00000000            0.00       44.87        0.00
   0.00000000   0.00000000   0.00030500            0.00        0.00       44.87


     BFGS Geometry Optimization
     Energy error            =      4.8E-03 Ry
     Gradient error          =      1.3E-31 Ry/Bohr
     Cell gradient error     =      4.5E+01 kbar

     number of scf cycles    =   1
     number of bfgs steps    =   0

     enthalpy           new  =   -1504.2792791631 Ry

     new trust radius        =       0.0406232824 bohr
     new conv_thr            =       0.0000001000 Ry

     new unit-cell volume =    725.97098 a.u.^3 (   107.57780 Ang^3 )
     density =      7.15401 g/cm^3

CELL_PARAMETERS (alat=  8.91950731)
   1.007624892   0.000000000   0.000000000
   0.000000000   1.007624892   0.000000000
   0.000000000   0.000000000   1.007624892

ATOMIC_POSITIONS (crystal)
O                0.0000000000        0.0000000000        0.0000000000
O                0.5000000000        0.5000000000        0.5000000000
Ag               0.2500000000        0.2500000000        0.2500000000
Ag               0.7500000000        0.7500000000        0.2500000000
Ag               0.7500000000        0.2500000000        0.7500000000
Ag               0.2500000000        0.7500000000        0.7500000000



     Writing config-only to output data dir ./tmp_vc/ag2o.save/ :
     XML data file
     NEW-OLD atomic charge density approx. for the potential
     New effective cutoffs (rho, wfc):  393.93   49.24

     total cpu time spent up to now is       42.0 secs

     per-process dynamical memory:   115.2 Mb

     Self-consistent Calculation

     iteration #  1     ecut=    50.00 Ry     beta= 0.70
     Davidson diagonalization with overlap
     ethr =  1.00E-06,  avg # of iterations =  7.2

     total cpu time spent up to now is       48.4 secs

     total energy              =   -1504.28287574 Ry
     estimated scf accuracy    <       0.00010714 Ry

     iteration #  2     ecut=    50.00 Ry     beta= 0.70
     Davidson diagonalization with overlap
     ethr =  1.91E-07,  avg # of iterations =  5.1

     total cpu time spent up to now is       53.1 secs

     total energy              =   -1504.28300814 Ry
     estimated scf accuracy    <       0.00051709 Ry

     iteration #  3     ecut=    50.00 Ry     beta= 0.70
     Davidson diagonalization with overlap
     ethr =  1.91E-07,  avg # of iterations =  3.0

     total cpu time spent up to now is       56.1 secs

     total energy              =   -1504.28306524 Ry
     estimated scf accuracy    <       0.00006899 Ry

     iteration #  4     ecut=    50.00 Ry     beta= 0.70
     Davidson diagonalization with overlap
     ethr =  1.23E-07,  avg # of iterations =  4.1

     total cpu time spent up to now is       60.2 secs

     total energy              =   -1504.28309065 Ry
     estimated scf accuracy    <       0.00001600 Ry

     iteration #  5     ecut=    50.00 Ry     beta= 0.70
     Davidson diagonalization with overlap
     ethr =  2.86E-08,  avg # of iterations =  2.0

     total cpu time spent up to now is       63.2 secs

     total energy              =   -1504.28309839 Ry
     estimated scf accuracy    <       0.00000238 Ry

     iteration #  6     ecut=    50.00 Ry     beta= 0.70
     Davidson diagonalization with overlap
     ethr =  4.26E-09,  avg # of iterations =  4.3

     total cpu time spent up to now is       67.3 secs

     total energy              =   -1504.28309945 Ry
     estimated scf accuracy    <       0.00001262 Ry

     iteration #  7     ecut=    50.00 Ry     beta= 0.70
     Davidson diagonalization with overlap
     ethr =  4.26E-09,  avg # of iterations =  2.1

     total cpu time spent up to now is       70.5 secs

     total energy              =   -1504.28309902 Ry
     estimated scf accuracy    <       0.00000338 Ry

     iteration #  8     ecut=    50.00 Ry     beta= 0.70
     Davidson diagonalization with overlap
     ethr =  4.26E-09,  avg # of iterations =  4.2

     total cpu time spent up to now is       74.1 secs

     End of self-consistent calculation

          k = 0.0000 0.0000 0.0000 (  4169 PWs)   bands (ev):

   -11.0720 -10.4251   0.9773   0.9773   0.9773   3.1632   3.4957   3.4957
     3.7009   3.7009   3.7009   4.0918   4.0918   4.0918   4.5709   4.5709
     4.7339   4.7339   4.7339   4.9268   4.9268   4.9268   5.0919   5.0919
     5.0919   7.6614   7.6689   7.6689   7.6689   9.7576   9.7576  14.8361
    14.8361  14.8361

          k = 0.0000 0.0000 0.1654 (  4232 PWs)   bands (ev):

   -11.0308 -10.4709   1.0686   1.0686   1.1050   3.2477   3.3113   3.3113
     3.3254   3.5645   3.7348   3.9876   4.1501   4.1501   4.5952   4.6574
     4.6676   4.8109   4.8109   4.8676   4.9500   5.0323   5.0323   5.2466
     5.2466   6.9769   7.5874   7.5874   7.9918  10.1252  10.2876  14.3579
    14.7599  14.7599

          k = 0.0000 0.0000 0.3308 (  4216 PWs)   bands (ev):

   -10.9169 -10.5939   1.3091   1.3091   1.4716   2.6873   2.7263   2.7263
     3.6221   3.7707   3.8119   4.0138   4.2954   4.2954   4.4914   4.5091
     4.6615   4.7297   4.7297   4.7723   4.8487   4.9920   4.9920   5.8123
     5.8123   5.9139   7.3763   7.3763   8.7866  10.4361  11.0867  13.9655
    14.6064  14.6065

          k = 0.0000 0.0000-0.4962 (  4220 PWs)   bands (ev):

   -10.7577 -10.7577   1.4986   1.4986   2.0275   2.0275   2.4113   2.4113
     3.8382   3.8382   4.0997   4.0997   4.2357   4.2357   4.4305   4.4305
     4.6121   4.6121   4.7533   4.7533   4.9770   4.9770   5.1106   5.1106
     6.1092   6.1092   7.2195   7.2195   9.7233   9.7233  12.4203  12.4203
    14.5286  14.5286

          k = 0.0000 0.1654 0.1654 (  4230 PWs)   bands (ev):

   -10.9946 -10.5098   1.0564   1.1486   1.3164   2.9093   3.0876   3.2593
     3.4108   3.6181   3.7941   4.0163   4.1067   4.1962   4.5760   4.5929
     4.6432   4.7559   4.8665   4.9308   4.9405   4.9751   5.0692   5.3250
     5.4198   6.8073   7.2703   7.5098   8.2815  10.4108  10.5905  13.6790
    14.3761  14.8884

          k = 0.0000 0.1654 0.3308 (  4216 PWs)   bands (ev):

   -10.8947 -10.6150   1.2171   1.3500   1.7002   2.3828   2.6518   2.8978
     3.7014   3.7845   3.8810   4.0576   4.1785   4.3184   4.4531   4.4964
     4.5661   4.6383   4.7643   4.8366   4.8699   4.8811   5.1535   5.7758
     5.8357   6.0466   7.1535   7.3082   8.9724  10.4894  11.1450  13.2068
    13.8202  14.6785

          k = 0.0000 0.1654-0.4962 (  4242 PWs)   bands (ev):

   -10.7562 -10.7562   1.4374   1.4374   2.0545   2.0545   2.4811   2.4811
     3.9069   3.9069   4.0763   4.0763   4.2150   4.2150   4.3495   4.3495
     4.6383   4.6383   4.7604   4.7604   4.8138   4.8138   5.3743   5.3743
     6.0766   6.0766   7.1237   7.1237   9.8011   9.8011  12.0755  12.0755
    14.5579  14.5579

          k = 0.0000 0.3308 0.3308 (  4244 PWs)   bands (ev):

   -10.8346 -10.6730   1.2263   1.4185   2.0201   2.0955   2.5034   2.8622
     3.8444   3.9029   4.0398   4.1088   4.1616   4.2817   4.3401   4.3845
     4.4835   4.6662   4.6714   4.7336   4.7917   4.8617   5.4103   5.8675
     5.9800   6.0028   6.9054   7.1379   9.3794  10.2858  11.2448  12.2186
    14.1282  14.5604

          k = 0.0000 0.3308-0.4962 (  4260 PWs)   bands (ev):

   -10.7532 -10.7532   1.3510   1.3510   2.0613   2.0613   2.6284   2.6284
     4.0285   4.0285   4.0499   4.0499   4.2437   4.2437   4.2679   4.2679
     4.5437   4.5437   4.7069   4.7069   4.7801   4.7801   5.6475   5.6475
     6.0580   6.0580   6.9551   6.9551   9.8320   9.8320  11.5557  11.5557
    14.5248  14.5248

          k = 0.0000-0.4962-0.4962 (  4260 PWs)   bands (ev):

   -10.7517 -10.7517   1.3183   1.3183   2.0534   2.0534   2.7012   2.7012
     4.0276   4.0276   4.0617   4.0617   4.3018   4.3018   4.3420   4.3420
     4.4223   4.4223   4.6532   4.6532   4.7660   4.7660   5.7313   5.7313
     6.0928   6.0928   6.8780   6.8780   9.7713   9.7713  11.3900  11.3900
    14.4290  14.4290

          k = 0.1654 0.1654 0.1654 (  4235 PWs)   bands (ev):

   -10.9655 -10.5399   1.1245   1.1245   1.5207   2.5916   3.1214   3.1214
     3.4973   3.6879   3.6879   4.1387   4.1803   4.1803   4.5267   4.5267
     4.6796   4.6796   4.7814   4.9208   4.9208   4.9956   5.2693   5.3913
     5.3913   6.9138   6.9138   7.3838   8.5444  10.7231  10.7231  12.9731
    14.2977  14.2977

          k = 0.1654 0.1654 0.3308 (  4229 PWs)   bands (ev):

   -10.8891 -10.6182   1.2259   1.2897   1.9013   2.1410   2.7779   2.8945
     3.7069   3.7856   3.8431   4.1451   4.2751   4.3089   4.4114   4.4269
     4.5373   4.6141   4.6633   4.8633   4.8715   4.9438   5.2595   5.6916
     5.7615   6.2480   7.0527   7.1535   9.1632  10.6616  11.1321  12.8833
    13.0482  13.9831

          k = 0.1654 0.1654-0.4962 (  4248 PWs)   bands (ev):

   -10.8241 -10.6842   1.3706   1.3972   1.8155   2.3155   2.5681   2.5904
     3.8133   3.9701   3.9941   4.1440   4.1641   4.2456   4.3772   4.3853
     4.4997   4.5722   4.7408   4.8037   4.8361   4.9104   5.2937   5.6783
     5.8546   6.2008   6.9732   7.0903   9.8121  10.0506  11.5973  12.2988
    13.4197  13.5622

          k = 0.1654 0.3308 0.3308 (  4246 PWs)   bands (ev):

   -10.8775 -10.6250   1.2216   1.3184   1.7943   2.2904   2.7416   2.9124
     3.7675   3.8070   3.8721   4.2584   4.2774   4.3267   4.3668   4.3967
     4.4037   4.5551   4.6469   4.8157   4.8972   4.9032   5.4473   5.5566
     5.9190   6.3590   6.8485   6.9891   9.5400  10.5847  11.1651  12.1457
    12.8182  13.5603

          k = 0.1654 0.3308-0.4962 (  4256 PWs)   bands (ev):

   -10.8714 -10.6287   1.2895   1.3013   1.6434   2.5209   2.7655   2.7753
     3.8151   3.8829   3.9137   4.1954   4.2026   4.2884   4.3305   4.4201
     4.4377   4.5169   4.7345   4.8070   4.8328   4.8837   5.4243   5.5913
     6.1007   6.2902   6.7246   7.0007   9.7257  10.3878  11.2232  11.7394
    13.1736  13.3082

          k = 0.1654-0.4962-0.4962 (  4252 PWs)   bands (ev):

   -10.8882 -10.6077   1.2578   1.2578   1.5783   2.5995   2.8648   2.8648
     3.7962   3.9027   3.9027   4.2157   4.2157   4.2496   4.2644   4.3735
     4.5517   4.5517   4.7166   4.7285   4.8145   4.8738   5.4900   5.4900
     6.3442   6.3442   6.5870   6.9558   9.5044  10.6312  11.2333  11.2333
    13.3423  13.3423

          k = 0.3308 0.3308 0.3308 (  4254 PWs)   bands (ev):

   -10.9328 -10.5595   1.2110   1.2110   1.4883   2.6826   3.0232   3.0232
     3.7023   3.7380   3.7380   4.2411   4.2411   4.2862   4.2862   4.3884
     4.6023   4.6215   4.6215   4.9213   4.9213   4.9533   5.3138   5.3138
     6.0529   6.6250   6.7894   6.7894   9.9063  10.8810  10.8810  11.6735
    12.6323  12.6323

          k = 0.3308 0.3308-0.4962 (  4226 PWs)   bands (ev):

   -10.9542 -10.5330   1.1965   1.2054   1.3436   2.9490   3.0652   3.0837
     3.6969   3.7134   3.7436   4.1984   4.2009   4.2324   4.2654   4.3236
     4.6351   4.6480   4.7267   4.9186   4.9314   4.9607   5.1734   5.2666
     6.2628   6.5713   6.5887   6.9968  10.0321  10.6554  10.7502  11.8321
    12.3824  12.7088

          k = 0.3308-0.4962-0.4962 (  4232 PWs)   bands (ev):

   -10.9837 -10.4969   1.1573   1.1573   1.2387   3.1769   3.2366   3.2366
     3.6066   3.7153   3.7153   4.1064   4.2138   4.2138   4.2441   4.2504
     4.7058   4.7058   4.7126   4.8805   4.9584   4.9795   5.1140   5.1140
     6.1375   6.7613   6.7613   6.9839   9.9189  10.6850  10.6850  11.6942
    12.6197  12.6197

          k =-0.4962-0.4962-0.4962 (  4272 PWs)   bands (ev):

   -11.0179 -10.4551   1.1138   1.1138   1.1138   3.5408   3.5408   3.5408
     3.5733   3.5733   3.5733   4.0535   4.0535   4.2028   4.2028   4.2028
     4.7176   4.7176   4.7176   4.9402   4.9402   4.9402   5.0129   5.0129
     5.9346   6.9960   6.9960   6.9960  10.3072  10.3072  10.3072  12.4772
    12.4772  12.4772

     the Fermi energy is     7.6958 ev

!    total energy              =   -1504.28309983 Ry
     total all-electron energy =    -42829.841095 Ry
     estimated scf accuracy    <       0.00000002 Ry
     smearing contrib. (-TS)   =       0.00028103 Ry
     internal energy E=F+TS    =   -1504.28338086 Ry

     The total energy is F=E-TS. E is the sum of the following terms:
     one-electron contribution =     -72.10750577 Ry
     hartree contribution      =      99.95236965 Ry
     xc contribution           =    -104.03771377 Ry
     ewald contribution        =    -299.61656497 Ry
     one-center paw contrib.   =   -1128.47396601 Ry

     convergence has been achieved in   8 iterations

     Forces acting on atoms (cartesian axes, Ry/au):

     atom    1 type  2   force =     0.00000000    0.00000000    0.00000000
     atom    2 type  2   force =     0.00000000    0.00000000    0.00000000
     atom    3 type  1   force =     0.00000000   -0.00000000    0.00000000
     atom    4 type  1   force =    -0.00000000   -0.00000000   -0.00000000
     atom    5 type  1   force =    -0.00000000   -0.00000000    0.00000000
     atom    6 type  1   force =     0.00000000    0.00000000   -0.00000000

     Total force =     0.000000     Total SCF correction =     0.000000


     Computing stress (Cartesian axis) and pressure

          total   stress  (Ry/bohr**3)                   (kbar)     P=       24.63
   0.00016744   0.00000000   0.00000000           24.63        0.00        0.00
   0.00000000   0.00016744   0.00000000            0.00       24.63        0.00
   0.00000000   0.00000000   0.00016744            0.00        0.00       24.63

     Energy error            =      3.8E-03 Ry
     Gradient error          =      1.7E-31 Ry/Bohr
     Cell gradient error     =      2.5E+01 kbar

     number of scf cycles    =   2
     number of bfgs steps    =   1

     enthalpy           old  =   -1504.2792791631 Ry
     enthalpy           new  =   -1504.2830998336 Ry

     CASE: enthalpy          _new < enthalpy          _old

     new trust radius        =       0.0448556486 bohr
     new conv_thr            =       0.0000000010 Ry

     new unit-cell volume =    744.25106 a.u.^3 (   110.28663 Ang^3 )
     density =      6.97830 g/cm^3

CELL_PARAMETERS (alat=  8.91950731)
   1.016012274   0.000000000   0.000000000
   0.000000000   1.016012274   0.000000000
   0.000000000   0.000000000   1.016012274

ATOMIC_POSITIONS (crystal)
O                0.0000000000        0.0000000000        0.0000000000
O                0.5000000000        0.5000000000        0.5000000000
Ag               0.2500000000        0.2500000000        0.2500000000
Ag               0.7500000000        0.7500000000        0.2500000000
Ag               0.7500000000        0.2500000000        0.7500000000
Ag               0.2500000000        0.7500000000        0.7500000000



     Writing config-only to output data dir ./tmp_vc/ag2o.save/ :
     XML data file
     NEW-OLD atomic charge density approx. for the potential
     New effective cutoffs (rho, wfc):  387.45   48.43

     total cpu time spent up to now is       78.4 secs

     per-process dynamical memory:   115.2 Mb

     Self-consistent Calculation

     iteration #  1     ecut=    50.00 Ry     beta= 0.70
     Davidson diagonalization with overlap
     ethr =  1.00E-06,  avg # of iterations =  7.1

     total cpu time spent up to now is       85.1 secs

     total energy              =   -1504.28461215 Ry
     estimated scf accuracy    <       0.00013691 Ry

     iteration #  2     ecut=    50.00 Ry     beta= 0.70
     Davidson diagonalization with overlap
     ethr =  2.44E-07,  avg # of iterations =  5.2

     total cpu time spent up to now is       89.9 secs

     total energy              =   -1504.28476426 Ry
     estimated scf accuracy    <       0.00071526 Ry

     iteration #  3     ecut=    50.00 Ry     beta= 0.70
     Davidson diagonalization with overlap
     ethr =  2.44E-07,  avg # of iterations =  3.9

     total cpu time spent up to now is       93.2 secs

     total energy              =   -1504.28485223 Ry
     estimated scf accuracy    <       0.00006994 Ry

     iteration #  4     ecut=    50.00 Ry     beta= 0.70
     Davidson diagonalization with overlap
     ethr =  1.25E-07,  avg # of iterations =  3.8

     total cpu time spent up to now is       96.9 secs

     total energy              =   -1504.28487759 Ry
     estimated scf accuracy    <       0.00000201 Ry

     iteration #  5     ecut=    50.00 Ry     beta= 0.70
     Davidson diagonalization with overlap
     ethr =  3.58E-09,  avg # of iterations =  4.8

     total cpu time spent up to now is      101.0 secs

     total energy              =   -1504.28488110 Ry
     estimated scf accuracy    <       0.00000184 Ry

     iteration #  6     ecut=    50.00 Ry     beta= 0.70
     Davidson diagonalization with overlap
     ethr =  3.29E-09,  avg # of iterations =  3.5

     total cpu time spent up to now is      104.2 secs

     total energy              =   -1504.28488206 Ry
     estimated scf accuracy    <       0.00000203 Ry

     iteration #  7     ecut=    50.00 Ry     beta= 0.70
     Davidson diagonalization with overlap
     ethr =  3.29E-09,  avg # of iterations =  2.0

     total cpu time spent up to now is      107.2 secs

     total energy              =   -1504.28488221 Ry
     estimated scf accuracy    <       0.00000029 Ry

     iteration #  8     ecut=    50.00 Ry     beta= 0.70
     Davidson diagonalization with overlap
     ethr =  5.15E-10,  avg # of iterations =  3.1

     total cpu time spent up to now is      110.3 secs

     End of self-consistent calculation

          k = 0.0000 0.0000 0.0000 (  4169 PWs)   bands (ev):

   -11.2326 -10.6320   0.8319   0.8319   0.8319   2.9531   3.2570   3.2570
     3.4545   3.4545   3.4545   3.8691   3.8691   3.8691   4.2818   4.2818
     4.4374   4.4374   4.4374   4.6226   4.6226   4.6226   4.7752   4.7752
     4.7752   7.2476   7.2892   7.2892   7.2892   9.4702   9.4702  14.3392
    14.3392  14.3392

          k = 0.0000 0.0000 0.1640 (  4232 PWs)   bands (ev):

   -11.1942 -10.6743   0.9202   0.9202   0.9548   3.0348   3.0937   3.0937
     3.1035   3.3232   3.4870   3.7408   3.8922   3.8922   4.3050   4.3734
     4.3744   4.5129   4.5129   4.5681   4.6405   4.7195   4.7195   4.9462
     4.9462   6.6404   7.2114   7.2114   7.5816   9.8244   9.9487  13.8962
    14.2667  14.2667

          k = 0.0000 0.0000 0.3281 (  4216 PWs)   bands (ev):

   -11.0880 -10.7881   1.1527   1.1527   1.3086   2.4887   2.5307   2.5307
     3.3946   3.5210   3.5615   3.7506   4.0211   4.0211   4.2070   4.2268
     4.3682   4.4342   4.4342   4.4888   4.5461   4.6813   4.6813   5.5010
     5.5010   5.6161   7.0096   7.0096   8.3781  10.0424  10.7571  13.5756
    14.1204  14.1204

          k = 0.0000 0.0000-0.4921 (  4220 PWs)   bands (ev):

   -10.9399 -10.9399   1.3350   1.3350   1.8472   1.8472   2.2271   2.2271
     3.5913   3.5913   3.8361   3.8361   3.9645   3.9645   4.1471   4.1471
     4.3229   4.3229   4.4556   4.4556   4.6675   4.6675   4.8287   4.8287
     5.7887   5.7887   6.8596   6.8596   9.3145   9.3145  12.0592  12.0592
    14.0461  14.0461

          k = 0.0000 0.1640 0.1640 (  4230 PWs)   bands (ev):

   -11.1604 -10.7102   0.9083   0.9976   1.1591   2.7067   2.8788   3.0410
     3.1917   3.3744   3.5442   3.7646   3.8442   3.9285   4.2870   4.3063
     4.3509   4.4613   4.5636   4.6255   4.6322   4.6647   4.7697   5.0223
     5.1217   6.4749   6.9115   7.1371   7.8732  10.0823  10.2401  13.2310
    13.9320  14.4500

          k = 0.0000 0.1640 0.3281 (  4216 PWs)   bands (ev):

   -11.0674 -10.8076   1.0636   1.1921   1.5297   2.1954   2.4583   2.6946
     3.4706   3.5342   3.6279   3.7936   3.9095   4.0415   4.1711   4.2135
     4.2819   4.3463   4.4674   4.5358   4.5659   4.5774   4.8496   5.4648
     5.5278   5.7356   6.7959   6.9439   8.5653  10.1037  10.7912  12.8130
    13.3892  14.2174

          k = 0.0000 0.1640-0.4921 (  4242 PWs)   bands (ev):

   -10.9385 -10.9385   1.2762   1.2762   1.8738   1.8738   2.2934   2.2934
     3.6574   3.6574   3.8139   3.8139   3.9448   3.9448   4.0710   4.0710
     4.3494   4.3494   4.4623   4.4623   4.5150   4.5150   5.0745   5.0745
     5.7577   5.7577   6.7666   6.7666   9.3961   9.3961  11.7052  11.7052
    14.0956  14.0956

          k = 0.0000 0.3281 0.3281 (  4244 PWs)   bands (ev):

   -11.0114 -10.8613   1.0726   1.2581   1.8387   1.9162   2.3148   2.6605
     3.5933   3.6595   3.7815   3.8434   3.8924   4.0069   4.0633   4.1072
     4.2016   4.3726   4.3822   4.4361   4.4896   4.5584   5.1021   5.5541
     5.6661   5.6884   6.5556   6.7800   8.9784   9.9147  10.8519  11.8322
    13.7102  14.1151

          k = 0.0000 0.3281-0.4921 (  4260 PWs)   bands (ev):

   -10.9358 -10.9358   1.1931   1.1931   1.8809   1.8809   2.4345   2.4345
     3.7685   3.7685   3.7951   3.7951   3.9698   3.9698   3.9950   3.9950
     4.2610   4.2610   4.4093   4.4093   4.4809   4.4809   5.3380   5.3380
     5.7399   5.7399   6.6035   6.6035   9.4461   9.4461  11.1660  11.1660
    14.0884  14.0884

          k = 0.0000-0.4921-0.4921 (  4260 PWs)   bands (ev):

   -10.9344 -10.9344   1.1616   1.1616   1.8732   1.8732   2.5049   2.5049
     3.7690   3.7690   3.8018   3.8018   4.0243   4.0243   4.0708   4.0708
     4.1437   4.1437   4.3574   4.3574   4.4679   4.4679   5.4194   5.4194
     5.7729   5.7729   6.5291   6.5291   9.4003   9.4003  10.9876  10.9876
    13.9991  13.9991

          k = 0.1640 0.1640 0.1640 (  4235 PWs)   bands (ev):

   -11.1333 -10.7380   0.9742   0.9742   1.3567   2.3977   2.9117   2.9117
     3.2749   3.4416   3.4416   3.8712   3.9153   3.9153   4.2402   4.2402
     4.3882   4.3882   4.4810   4.6137   4.6137   4.6870   4.9633   5.0937
     5.0937   6.5722   6.5722   7.0146   8.1370  10.3735  10.3735  12.5334
    13.8752  13.8752

          k = 0.1640 0.1640 0.3281 (  4229 PWs)   bands (ev):

   -11.0621 -10.8105   1.0720   1.1335   1.7243   1.9605   2.5817   2.6919
     3.4721   3.5350   3.5919   3.8788   4.0016   4.0340   4.1308   4.1473
     4.2552   4.3238   4.3694   4.5592   4.5678   4.6376   4.9576   5.3844
     5.4524   5.9270   6.7003   6.7920   8.7569  10.2723  10.7822  12.4641
    12.6502  13.5609

          k = 0.1640 0.1640-0.4921 (  4248 PWs)   bands (ev):

   -11.0016 -10.8718   1.2119   1.2370   1.6430   2.1260   2.3764   2.4011
     3.5674   3.7125   3.7407   3.8767   3.8972   3.9713   4.0973   4.1081
     4.2227   4.2828   4.4443   4.5031   4.5326   4.6059   4.9994   5.3685
     5.5409   5.8797   6.6163   6.7355   9.4118   9.6439  11.2550  11.8991
    13.0324  13.1095

          k = 0.1640 0.3281 0.3281 (  4246 PWs)   bands (ev):

   -11.0512 -10.8169   1.0677   1.1610   1.6221   2.1030   2.5470   2.7108
     3.5259   3.5562   3.6199   3.9833   4.0039   4.0536   4.0928   4.1167
     4.1277   4.2663   4.3550   4.5156   4.5918   4.5986   5.1413   5.2519
     5.6019   6.0321   6.4973   6.6358   9.1433  10.2138  10.7843  11.7692
    12.3920  13.1432

          k = 0.1640 0.3281-0.4921 (  4256 PWs)   bands (ev):

   -11.0455 -10.8204   1.1333   1.1444   1.4755   2.3276   2.5682   2.5793
     3.5680   3.6311   3.6623   3.9250   3.9289   4.0174   4.0546   4.1448
     4.1547   4.2329   4.4384   4.5093   4.5295   4.5785   5.1209   5.2826
     5.7795   5.9662   6.3718   6.6484   9.3553   9.9867  10.8626  11.3479
    12.7682  12.8736

          k = 0.1640-0.4921-0.4921 (  4252 PWs)   bands (ev):

   -11.0611 -10.8010   1.1026   1.1026   1.4119   2.4057   2.6649   2.6649
     3.5476   3.6529   3.6529   3.9410   3.9410   3.9800   3.9964   4.0917
     4.2681   4.2681   4.4217   4.4339   4.5103   4.5699   5.1825   5.1825
     6.0176   6.0176   6.2348   6.6049   9.1599  10.2345  10.8492  10.8492
    12.9214  12.9214

          k = 0.3281 0.3281 0.3281 (  4254 PWs)   bands (ev):

   -11.1026 -10.7563   1.0569   1.0569   1.3253   2.4851   2.8215   2.8215
     3.4619   3.4912   3.4912   3.9655   3.9655   4.0180   4.0180   4.1052
     4.3189   4.3315   4.3315   4.6140   4.6140   4.6480   5.0132   5.0132
     5.7201   6.2777   6.4451   6.4451   9.5177  10.5383  10.5383  11.2670
    12.2066  12.2066

          k = 0.3281 0.3281-0.4921 (  4226 PWs)   bands (ev):

   -11.1225 -10.7318   1.0429   1.0512   1.1850   2.7456   2.8607   2.8821
     3.4516   3.4735   3.4996   3.9266   3.9328   3.9566   3.9998   4.0434
     4.3475   4.3589   4.4318   4.6150   4.6231   4.6513   4.8743   4.9635
     5.9083   6.2356   6.2537   6.6421   9.6701  10.3366  10.3755  11.4495
    11.9472  12.2654

          k = 0.3281-0.4921-0.4921 (  4232 PWs)   bands (ev):

   -11.1500 -10.6985   1.0047   1.0047   1.0832   2.9720   3.0277   3.0277
     3.3652   3.4779   3.4779   3.8435   3.9386   3.9386   3.9733   3.9815
     4.4141   4.4141   4.4185   4.5789   4.6474   4.6692   4.8109   4.8109
     5.7781   6.4177   6.4177   6.6289   9.5945  10.3507  10.3507  11.2752
    12.1796  12.1796

          k =-0.4921-0.4921-0.4921 (  4272 PWs)   bands (ev):

   -11.1818 -10.6599   0.9624   0.9624   0.9624   3.3018   3.3018   3.3018
     3.3696   3.3696   3.3696   3.7930   3.7930   3.9278   3.9278   3.9278
     4.4235   4.4235   4.4235   4.6356   4.6356   4.6356   4.6992   4.6992
     5.5696   6.6391   6.6391   6.6391   9.9985   9.9985   9.9985  12.0286
    12.0286  12.0286

     the Fermi energy is     7.3135 ev

!    total energy              =   -1504.28488228 Ry
     total all-electron energy =    -42829.842878 Ry
     estimated scf accuracy    <          7.0E-10 Ry
     smearing contrib. (-TS)   =       0.00030360 Ry
     internal energy E=F+TS    =   -1504.28518588 Ry

     The total energy is F=E-TS. E is the sum of the following terms:
     one-electron contribution =     -76.01762162 Ry
     hartree contribution      =     101.32619442 Ry
     xc contribution           =    -103.98207389 Ry
     ewald contribution        =    -297.14317116 Ry
     one-center paw contrib.   =   -1128.46851362 Ry

     convergence has been achieved in   8 iterations

     Forces acting on atoms (cartesian axes, Ry/au):

     atom    1 type  2   force =     0.00000000    0.00000000    0.00000000
     atom    2 type  2   force =     0.00000000    0.00000000    0.00000000
     atom    3 type  1   force =     0.00000000    0.00000000    0.00000000
     atom    4 type  1   force =    -0.00000000   -0.00000000   -0.00000000
     atom    5 type  1   force =    -0.00000000    0.00000000   -0.00000000
     atom    6 type  1   force =     0.00000000   -0.00000000   -0.00000000

     Total force =     0.000000     Total SCF correction =     0.000000


     Computing stress (Cartesian axis) and pressure

          total   stress  (Ry/bohr**3)                   (kbar)     P=        4.89
   0.00003325   0.00000000   0.00000000            4.89        0.00        0.00
   0.00000000   0.00003325   0.00000000            0.00        4.89        0.00
   0.00000000   0.00000000   0.00003325            0.00        0.00        4.89

     Energy error            =      1.8E-03 Ry
     Gradient error          =      5.8E-31 Ry/Bohr
     Cell gradient error     =      4.9E+00 kbar

     number of scf cycles    =   3
     number of bfgs steps    =   2

     enthalpy           old  =   -1504.2830998336 Ry
     enthalpy           new  =   -1504.2848822809 Ry

     CASE: enthalpy          _new < enthalpy          _old

     new trust radius        =       0.0113953962 bohr
     new conv_thr            =       0.0000000010 Ry

     new unit-cell volume =    748.92396 a.u.^3 (   110.97908 Ang^3 )
     density =      6.93475 g/cm^3

CELL_PARAMETERS (alat=  8.91950731)
   1.018134241   0.000000000   0.000000000
   0.000000000   1.018134241   0.000000000
   0.000000000   0.000000000   1.018134241

ATOMIC_POSITIONS (crystal)
O                0.0000000000        0.0000000000        0.0000000000
O                0.5000000000        0.5000000000        0.5000000000
Ag               0.2500000000        0.2500000000        0.2500000000
Ag               0.7500000000        0.7500000000        0.2500000000
Ag               0.7500000000        0.2500000000        0.7500000000
Ag               0.2500000000        0.7500000000        0.7500000000



     Writing config-only to output data dir ./tmp_vc/ag2o.save/ :
     XML data file
     NEW-OLD atomic charge density approx. for the potential
     New effective cutoffs (rho, wfc):  385.84   48.23

     total cpu time spent up to now is      114.4 secs

     per-process dynamical memory:   115.2 Mb

     Self-consistent Calculation

     iteration #  1     ecut=    50.00 Ry     beta= 0.70
     Davidson diagonalization with overlap
     ethr =  1.00E-06,  avg # of iterations =  4.1

     Threshold (ethr) on eigenvalues was too large:
     Diagonalizing with lowered threshold

     Davidson diagonalization with overlap
     ethr =  1.24E-08,  avg # of iterations =  5.0

     total cpu time spent up to now is      123.0 secs

     total energy              =   -1504.28494449 Ry
     estimated scf accuracy    <       0.00001166 Ry

     iteration #  2     ecut=    50.00 Ry     beta= 0.70
     Davidson diagonalization with overlap
     ethr =  2.08E-08,  avg # of iterations =  5.5

     total cpu time spent up to now is      127.7 secs

     total energy              =   -1504.28495419 Ry
     estimated scf accuracy    <       0.00006758 Ry

     iteration #  3     ecut=    50.00 Ry     beta= 0.70
     Davidson diagonalization with overlap
     ethr =  2.08E-08,  avg # of iterations =  4.3

     total cpu time spent up to now is      131.0 secs

     total energy              =   -1504.28496231 Ry
     estimated scf accuracy    <       0.00000496 Ry

     iteration #  4     ecut=    50.00 Ry     beta= 0.70
     Davidson diagonalization with overlap
     ethr =  8.86E-09,  avg # of iterations =  3.6

     total cpu time spent up to now is      134.3 secs

     total energy              =   -1504.28496398 Ry
     estimated scf accuracy    <       0.00000011 Ry

     iteration #  5     ecut=    50.00 Ry     beta= 0.70
     Davidson diagonalization with overlap
     ethr =  1.94E-10,  avg # of iterations =  5.5

     total cpu time spent up to now is      138.7 secs

     total energy              =   -1504.28496421 Ry
     estimated scf accuracy    <       0.00000010 Ry

     iteration #  6     ecut=    50.00 Ry     beta= 0.70
     Davidson diagonalization with overlap
     ethr =  1.80E-10,  avg # of iterations =  2.2

     total cpu time spent up to now is      141.6 secs

     total energy              =   -1504.28496431 Ry
     estimated scf accuracy    <       0.00000006 Ry

     iteration #  7     ecut=    50.00 Ry     beta= 0.70
     Davidson diagonalization with overlap
     ethr =  1.00E-10,  avg # of iterations =  2.0

     total cpu time spent up to now is      144.8 secs

     total energy              =   -1504.28496432 Ry
     estimated scf accuracy    <          9.2E-09 Ry

     iteration #  8     ecut=    50.00 Ry     beta= 0.70
     Davidson diagonalization with overlap
     ethr =  1.65E-11,  avg # of iterations =  2.6

     total cpu time spent up to now is      147.8 secs

     total energy              =   -1504.28496432 Ry
     estimated scf accuracy    <          1.9E-09 Ry

     iteration #  9     ecut=    50.00 Ry     beta= 0.70
     Davidson diagonalization with overlap
     ethr =  3.46E-12,  avg # of iterations =  3.8

     total cpu time spent up to now is      151.0 secs

     End of self-consistent calculation

          k = 0.0000 0.0000 0.0000 (  4169 PWs)   bands (ev):

   -11.2723 -10.6829   0.7960   0.7960   0.7960   2.9009   3.1977   3.1977
     3.3933   3.3933   3.3933   3.8143   3.8143   3.8143   4.2101   4.2101
     4.3639   4.3639   4.3639   4.5471   4.5471   4.5471   4.6968   4.6968
     4.6968   7.1457   7.1954   7.1954   7.1954   9.3991   9.3991  14.2160
    14.2160  14.2160

          k = 0.0000 0.0000 0.1637 (  4232 PWs)   bands (ev):

   -11.2346 -10.7244   0.8835   0.8835   0.9177   2.9819   3.0397   3.0397
     3.0484   3.2632   3.4254   3.6796   3.8282   3.8282   4.2330   4.3017
     4.3031   4.4390   4.4390   4.4939   4.5637   4.6420   4.6420   4.8720
     4.8720   6.5569   7.1185   7.1185   7.4806   9.7501   9.8651  13.7817
    14.1444  14.1444

          k = 0.0000 0.0000 0.3274 (  4216 PWs)   bands (ev):

   -11.1303 -10.8359   1.1140   1.1140   1.2683   2.4396   2.4823   2.4823
     3.3381   3.4589   3.4992   3.6852   3.9530   3.9530   4.1365   4.1567
     4.2954   4.3609   4.3609   4.4186   4.4711   4.6043   4.6043   5.4241
     5.4241   5.5423   6.9189   6.9189   8.2774   9.9452  10.6756  13.4791
    13.9999  13.9999

          k = 0.0000 0.0000-0.4911 (  4220 PWs)   bands (ev):

   -10.9849 -10.9849   1.2946   1.2946   1.8026   1.8026   2.1814   2.1814
     3.5299   3.5299   3.7706   3.7706   3.8972   3.8972   4.0767   4.0767
     4.2511   4.2511   4.3818   4.3818   4.5908   4.5908   4.7589   4.7589
     5.7095   5.7095   6.7706   6.7706   9.2137   9.2137  11.9699  11.9699
    13.9265  13.9265

          k = 0.0000 0.1637 0.1637 (  4230 PWs)   bands (ev):

   -11.2014 -10.7596   0.8717   0.9603   1.1202   2.6566   2.8271   2.9867
     3.1374   3.3138   3.4821   3.7021   3.7791   3.8620   4.2153   4.2352
     4.2783   4.3883   4.4885   4.5499   4.5557   4.5878   4.6956   4.9476
     5.0481   6.3926   6.8227   7.0449   7.7726  10.0011  10.1537  13.1199
    13.8207  14.3426

          k = 0.0000 0.1637 0.3274 (  4216 PWs)   bands (ev):

   -11.1100 -10.8551   1.0257   1.1531   1.4876   2.1490   2.4104   2.6443
     3.4132   3.4719   3.5650   3.7281   3.8427   3.9728   4.1011   4.1433
     4.2114   4.2739   4.3938   4.4613   4.4905   4.5021   4.7744   5.3880
     5.4516   5.6587   6.7074   6.8538   8.4649  10.0082  10.7038  12.7153
    13.2824  14.1033

          k = 0.0000 0.1637-0.4911 (  4242 PWs)   bands (ev):

   -10.9836 -10.9836   1.2364   1.2364   1.8291   1.8291   2.2469   2.2469
     3.5953   3.5953   3.7487   3.7487   3.8778   3.8778   4.0018   4.0018
     4.2777   4.2777   4.3884   4.3884   4.4410   4.4410   5.0004   5.0004
     5.6789   5.6789   6.6782   6.6782   9.2962   9.2962  11.6136  11.6136
    13.9810  13.9810

          k = 0.0000 0.3274 0.3274 (  4244 PWs)   bands (ev):

   -11.0551 -10.9078   1.0346   1.2185   1.7938   1.8718   2.2681   2.6106
     3.5308   3.5991   3.7173   3.7775   3.8255   3.9387   3.9946   4.0383
     4.1316   4.2998   4.3104   4.3624   4.4147   4.4832   5.0258   5.4767
     5.5883   5.6108   6.4691   6.6916   8.8795   9.8229  10.7547  11.7365
    13.6067  14.0048

          k = 0.0000 0.3274-0.4911 (  4260 PWs)   bands (ev):

   -10.9809 -10.9809   1.1541   1.1541   1.8363   1.8363   2.3866   2.3866
     3.7038   3.7038   3.7318   3.7318   3.9017   3.9017   3.9273   3.9273
     4.1909   4.1909   4.3355   4.3355   4.4067   4.4067   5.2615   5.2615
     5.6613   5.6613   6.5165   6.5165   9.3507   9.3507  11.0696  11.0696
    13.9802  13.9802

          k = 0.0000-0.4911-0.4911 (  4260 PWs)   bands (ev):

   -10.9796 -10.9796   1.1229   1.1229   1.8287   1.8287   2.4563   2.4563
     3.7047   3.7047   3.7372   3.7372   3.9554   3.9554   4.0034   4.0034
     4.0745   4.0745   4.2841   4.2841   4.3940   4.3940   5.3422   5.3422
     5.6939   5.6939   6.4428   6.4428   9.3087   9.3087  10.8880  10.8880
    13.8926  13.8926

          k = 0.1637 0.1637 0.1637 (  4235 PWs)   bands (ev):

   -11.1748 -10.7869   0.9370   0.9370   1.3161   2.3497   2.8597   2.8597
     3.2196   3.3804   3.3804   3.8047   3.8495   3.8495   4.1691   4.1691
     4.3159   4.3159   4.4065   4.5376   4.5376   4.6106   4.8876   5.0201
     5.0201   6.4876   6.4876   6.9233   8.0366  10.2871  10.2871  12.4244
    13.7701  13.7701

          k = 0.1637 0.1637 0.3274 (  4229 PWs)   bands (ev):

   -11.1049 -10.8580   1.0340   1.0949   1.6805   1.9158   2.5331   2.6417
     3.4137   3.4727   3.5295   3.8127   3.9337   3.9657   4.0611   4.0779
     4.1852   4.2517   4.2965   4.4838   4.4926   4.5617   4.8829   5.3085
     5.3761   5.8475   6.6132   6.7026   8.6567  10.1761  10.6956  12.3601
    12.5516  13.4564

          k = 0.1637 0.1637-0.4911 (  4248 PWs)   bands (ev):

   -11.0454 -10.9181   1.1726   1.1973   1.6004   2.0791   2.3289   2.3543
     3.5063   3.6485   3.6776   3.8103   3.8308   3.9031   4.0278   4.0393
     4.1539   4.2110   4.3708   4.4286   4.4574   4.5304   4.9266   5.2919
     5.4634   5.8003   6.5281   6.6478   9.3130   9.5435  11.1703  11.8001
    12.9365  12.9972

          k = 0.1637 0.3274 0.3274 (  4246 PWs)   bands (ev):

   -11.0942 -10.8643   1.0297   1.1221   1.5796   2.0566   2.4988   2.6608
     3.4658   3.4939   3.5572   3.9150   3.9359   3.9859   4.0248   4.0472
     4.0592   4.1947   4.2825   4.4411   4.5161   4.5232   5.0656   5.1766
     5.5235   5.9513   6.4105   6.5485   9.0453  10.1220  10.6901  11.6761
    12.2864  13.0401

          k = 0.1637 0.3274-0.4911 (  4256 PWs)   bands (ev):

   -11.0886 -10.8676   1.0947   1.1056   1.4340   2.2798   2.5193   2.5308
     3.5065   3.5685   3.5998   3.8578   3.8609   3.9501   3.9861   4.0765
     4.0844   4.1624   4.3650   4.4355   4.4543   4.5028   5.0458   5.2063
     5.7001   5.8861   6.2847   6.5612   9.2637   9.8876  10.7734  11.2509
    12.6680  12.7661

          k = 0.1637-0.4911-0.4911 (  4252 PWs)   bands (ev):

   -11.1039 -10.8486   1.0643   1.0643   1.3708   2.3578   2.6154   2.6154
     3.4858   3.5908   3.5908   3.8728   3.8728   3.9131   3.9298   4.0217
     4.1977   4.1977   4.3485   4.3609   4.4349   4.4946   5.1065   5.1065
     5.9368   5.9368   6.1478   6.5181   9.0747  10.1364  10.7541  10.7541
    12.8174  12.8174

          k = 0.3274 0.3274 0.3274 (  4254 PWs)   bands (ev):

   -11.1446 -10.8048   1.0189   1.0189   1.2850   2.4362   2.7716   2.7716
     3.4022   3.4298   3.4298   3.8971   3.8971   3.9514   3.9514   4.0349
     4.2486   4.2596   4.2596   4.5378   4.5378   4.5723   4.9389   4.9389
     5.6377   6.1920   6.3600   6.3600   9.4216  10.4535  10.4535  11.1663
    12.1014  12.1014

          k = 0.3274 0.3274-0.4911 (  4226 PWs)   bands (ev):

   -11.1641 -10.7808   1.0049   1.0131   1.1458   2.6953   2.8101   2.8322
     3.3906   3.4139   3.4389   3.8585   3.8668   3.8882   3.9339   3.9739
     4.2762   4.2871   4.3586   4.5398   4.5467   4.5746   4.8003   4.8885
     5.8207   6.1526   6.1708   6.5544   9.5805  10.2577  10.2825  11.3552
    11.8395  12.1556

          k = 0.3274-0.4911-0.4911 (  4232 PWs)   bands (ev):

   -11.1912 -10.7481   0.9670   0.9670   1.0448   2.9214   2.9759   2.9759
     3.3052   3.4191   3.4191   3.7782   3.8703   3.8703   3.9045   3.9164
     4.3418   4.3418   4.3456   4.5042   4.5703   4.5922   4.7359   4.7359
     5.6893   6.3328   6.3328   6.5412   9.5141  10.2679  10.2679  11.1715
    12.0708  12.0708

          k =-0.4911-0.4911-0.4911 (  4272 PWs)   bands (ev):

   -11.2224 -10.7103   0.9250   0.9250   0.9250   3.2424   3.2424   3.2424
     3.3194   3.3194   3.3194   3.7283   3.7283   3.8595   3.8595   3.8595
     4.3505   4.3505   4.3505   4.5601   4.5601   4.5601   4.6215   4.6215
     5.4794   6.5509   6.5509   6.5509   9.9221   9.9221   9.9221  11.9176
    11.9176  11.9176

     the Fermi energy is     7.2191 ev

!    total energy              =   -1504.28496432 Ry
     total all-electron energy =    -42829.842960 Ry
     estimated scf accuracy    <          1.2E-10 Ry
     smearing contrib. (-TS)   =       0.00031077 Ry
     internal energy E=F+TS    =   -1504.28527509 Ry

     The total energy is F=E-TS. E is the sum of the following terms:
     one-electron contribution =     -76.99853296 Ry
     hartree contribution      =     101.67294035 Ry
     xc contribution           =    -103.96855904 Ry
     ewald contribution        =    -296.52387361 Ry
     one-center paw contrib.   =   -1128.46724984 Ry

     convergence has been achieved in   9 iterations

     Forces acting on atoms (cartesian axes, Ry/au):

     atom    1 type  2   force =     0.00000000    0.00000000    0.00000000
     atom    2 type  2   force =     0.00000000    0.00000000    0.00000000
     atom    3 type  1   force =     0.00000000    0.00000000    0.00000000
     atom    4 type  1   force =     0.00000000    0.00000000    0.00000000
     atom    5 type  1   force =    -0.00000000    0.00000000   -0.00000000
     atom    6 type  1   force =    -0.00000000    0.00000000   -0.00000000

     Total force =     0.000000     Total SCF correction =     0.000000


     Computing stress (Cartesian axis) and pressure

          total   stress  (Ry/bohr**3)                   (kbar)     P=        0.38
   0.00000257   0.00000000   0.00000000            0.38        0.00        0.00
   0.00000000   0.00000257   0.00000000            0.00        0.38        0.00
   0.00000000   0.00000000   0.00000257            0.00        0.00        0.38

     Energy error            =      8.2E-05 Ry
     Gradient error          =      2.7E-30 Ry/Bohr
     Cell gradient error     =      3.8E-01 kbar

     number of scf cycles    =   4
     number of bfgs steps    =   3

     enthalpy           old  =   -1504.2848822809 Ry
     enthalpy           new  =   -1504.2849643200 Ry

     CASE: enthalpy          _new < enthalpy          _old

     new trust radius        =       0.0009584004 bohr
     new conv_thr            =       0.0000000010 Ry

     new unit-cell volume =    749.31745 a.u.^3 (   111.03739 Ang^3 )
     density =      6.93111 g/cm^3

CELL_PARAMETERS (alat=  8.91950731)
   1.018312521   0.000000000   0.000000000
   0.000000000   1.018312521   0.000000000
   0.000000000   0.000000000   1.018312521

ATOMIC_POSITIONS (crystal)
O                0.0000000000        0.0000000000        0.0000000000
O                0.5000000000        0.5000000000        0.5000000000
Ag               0.2500000000        0.2500000000        0.2500000000
Ag               0.7500000000        0.7500000000        0.2500000000
Ag               0.7500000000        0.2500000000        0.7500000000
Ag               0.2500000000        0.7500000000        0.7500000000



     Writing config-only to output data dir ./tmp_vc/ag2o.save/ :
     XML data file
     NEW-OLD atomic charge density approx. for the potential
     New effective cutoffs (rho, wfc):  385.70   48.21

     total cpu time spent up to now is      155.1 secs

     per-process dynamical memory:   115.2 Mb

     Self-consistent Calculation

     iteration #  1     ecut=    50.00 Ry     beta= 0.70
     Davidson diagonalization with overlap
     ethr =  1.00E-06,  avg # of iterations =  2.0

     Threshold (ethr) on eigenvalues was too large:
     Diagonalizing with lowered threshold

     Davidson diagonalization with overlap
     ethr =  1.81E-10,  avg # of iterations =  5.5

     total cpu time spent up to now is      163.2 secs

     total energy              =   -1504.28496457 Ry
     estimated scf accuracy    <       0.00000007 Ry

     iteration #  2     ecut=    50.00 Ry     beta= 0.70
     Davidson diagonalization with overlap
     ethr =  1.27E-10,  avg # of iterations =  5.2

     total cpu time spent up to now is      167.9 secs

     total energy              =   -1504.28496465 Ry
     estimated scf accuracy    <       0.00000042 Ry

     iteration #  3     ecut=    50.00 Ry     beta= 0.70
     Davidson diagonalization with overlap
     ethr =  1.27E-10,  avg # of iterations =  4.3

     total cpu time spent up to now is      171.1 secs

     total energy              =   -1504.28496474 Ry
     estimated scf accuracy    <       0.00000004 Ry

     iteration #  4     ecut=    50.00 Ry     beta= 0.70
     Davidson diagonalization with overlap
     ethr =  6.64E-11,  avg # of iterations =  3.5

     total cpu time spent up to now is      174.4 secs

     End of self-consistent calculation

          k = 0.0000 0.0000 0.0000 (  4169 PWs)   bands (ev):

   -11.2756 -10.6872   0.7930   0.7930   0.7930   2.8966   3.1928   3.1928
     3.3882   3.3882   3.3882   3.8098   3.8098   3.8098   4.2042   4.2042
     4.3578   4.3578   4.3578   4.5409   4.5409   4.5409   4.6903   4.6903
     4.6903   7.1373   7.1876   7.1876   7.1876   9.3931   9.3931  14.2057
    14.2057  14.2057

          k = 0.0000 0.0000 0.1637 (  4232 PWs)   bands (ev):

   -11.2380 -10.7286   0.8805   0.8805   0.9147   2.9775   3.0352   3.0352
     3.0439   3.2582   3.4204   3.6746   3.8229   3.8229   4.2271   4.2957
     4.2973   4.4329   4.4329   4.4877   4.5574   4.6356   4.6356   4.8659
     4.8659   6.5500   7.1108   7.1108   7.4722   9.7439   9.8581  13.7722
    14.1342  14.1342

          k = 0.0000 0.0000 0.3273 (  4216 PWs)   bands (ev):

   -11.1338 -10.8399   1.1108   1.1108   1.2650   2.4356   2.4783   2.4783
     3.3334   3.4538   3.4940   3.6798   3.9473   3.9473   4.1307   4.1509
     4.2894   4.3548   4.3548   4.4127   4.4649   4.5980   4.5980   5.4177
     5.4177   5.5362   6.9114   6.9114   8.2690   9.9372  10.6688  13.4710
    13.9898  13.9898

          k = 0.0000 0.0000-0.4910 (  4220 PWs)   bands (ev):

   -10.9887 -10.9887   1.2913   1.2913   1.7989   1.7989   2.1776   2.1776
     3.5248   3.5248   3.7652   3.7652   3.8917   3.8917   4.0709   4.0709
     4.2452   4.2452   4.3757   4.3757   4.5845   4.5845   4.7531   4.7531
     5.7030   5.7030   6.7632   6.7632   9.2053   9.2053  11.9625  11.9625
    13.9165  13.9165

          k = 0.0000 0.1637 0.1637 (  4230 PWs)   bands (ev):

   -11.2048 -10.7637   0.8687   0.9572   1.1170   2.6525   2.8228   2.9822
     3.1329   3.3088   3.4770   3.6970   3.7737   3.8565   4.2093   4.2293
     4.2723   4.3822   4.4823   4.5436   4.5494   4.5814   4.6895   4.9414
     5.0420   6.3857   6.8154   7.0373   7.7643   9.9943  10.1465  13.1107
    13.8114  14.3336

          k = 0.0000 0.1637 0.3273 (  4216 PWs)   bands (ev):

   -11.1136 -10.8590   1.0226   1.1499   1.4841   2.1452   2.4064   2.6401
     3.4084   3.4668   3.5598   3.7227   3.8372   3.9671   4.0953   4.1375
     4.2056   4.2679   4.3877   4.4551   4.4842   4.4959   4.7682   5.3816
     5.4453   5.6523   6.7001   6.8464   8.4566  10.0003  10.6965  12.7071
    13.2735  14.0938

          k = 0.0000 0.1637-0.4910 (  4242 PWs)   bands (ev):

   -10.9873 -10.9873   1.2331   1.2331   1.8255   1.8255   2.2431   2.2431
     3.5902   3.5902   3.7433   3.7433   3.8722   3.8722   3.9961   3.9961
     4.2718   4.2718   4.3823   4.3823   4.4348   4.4348   4.9943   4.9943
     5.6724   5.6724   6.6709   6.6709   9.2879   9.2879  11.6059  11.6059
    13.9714  13.9714

          k = 0.0000 0.3273 0.3273 (  4244 PWs)   bands (ev):

   -11.0587 -10.9117   1.0315   1.2152   1.7901   1.8681   2.2643   2.6065
     3.5256   3.5941   3.7120   3.7720   3.8200   3.9331   3.9889   4.0327
     4.1259   4.2938   4.3045   4.3563   4.4085   4.4770   5.0195   5.4703
     5.5819   5.6043   6.4619   6.6842   8.8712   9.8153  10.7466  11.7285
    13.5981  13.9956

          k = 0.0000 0.3273-0.4910 (  4260 PWs)   bands (ev):

   -10.9847 -10.9847   1.1508   1.1508   1.8326   1.8326   2.3826   2.3826
     3.6985   3.6985   3.7265   3.7265   3.8961   3.8961   3.9217   3.9217
     4.1851   4.1851   4.3294   4.3294   4.4006   4.4006   5.2551   5.2551
     5.6548   5.6548   6.5093   6.5093   9.3428   9.3428  11.0616  11.0616
    13.9712  13.9712

          k = 0.0000-0.4910-0.4910 (  4260 PWs)   bands (ev):

   -10.9833 -10.9833   1.1197   1.1197   1.8250   1.8250   2.4523   2.4523
     3.6994   3.6994   3.7319   3.7319   3.9497   3.9497   3.9979   3.9979
     4.0688   4.0688   4.2780   4.2780   4.3879   4.3879   5.3358   5.3358
     5.6874   5.6874   6.4357   6.4357   9.3010   9.3010  10.8797  10.8797
    13.8837  13.8837

          k = 0.1637 0.1637 0.1637 (  4235 PWs)   bands (ev):

   -11.1782 -10.7910   0.9339   0.9339   1.3128   2.3458   2.8554   2.8554
     3.2150   3.3753   3.3753   3.7993   3.8440   3.8440   4.1632   4.1632
     4.3099   4.3099   4.4003   4.5313   4.5313   4.6043   4.8814   5.0141
     5.0141   6.4806   6.4806   6.9157   8.0283  10.2799  10.2799  12.4153
    13.7614  13.7614

          k = 0.1637 0.1637 0.3273 (  4229 PWs)   bands (ev):

   -11.1085 -10.8620   1.0308   1.0917   1.6769   1.9121   2.5291   2.6376
     3.4089   3.4676   3.5244   3.8072   3.9281   3.9601   4.0554   4.0721
     4.1795   4.2458   4.2905   4.4775   4.4864   4.5554   4.8767   5.3022
     5.3697   5.8410   6.6060   6.6952   8.6483  10.1681  10.6884  12.3514
    12.5434  13.4476

          k = 0.1637 0.1637-0.4910 (  4248 PWs)   bands (ev):

   -11.0491 -10.9219   1.1694   1.1941   1.5968   2.0752   2.3250   2.3504
     3.5012   3.6432   3.6724   3.8048   3.8254   3.8975   4.0221   4.0336
     4.1482   4.2050   4.3647   4.4225   4.4512   4.5241   4.9206   5.2856
     5.4570   5.7937   6.5208   6.6405   9.3048   9.5351  11.1633  11.7918
    12.9285  12.9878

          k = 0.1637 0.3273 0.3273 (  4246 PWs)   bands (ev):

   -11.0978 -10.8682   1.0266   1.1189   1.5761   2.0528   2.4948   2.6567
     3.4608   3.4888   3.5520   3.9093   3.9303   3.9803   4.0192   4.0415
     4.0535   4.1888   4.2766   4.4350   4.5099   4.5169   5.0593   5.1704
     5.5170   5.9446   6.4033   6.5412   9.0371  10.1144  10.6823  11.6684
    12.2776  13.0315

          k = 0.1637 0.3273-0.4910 (  4256 PWs)   bands (ev):

   -11.0922 -10.8716   1.0915   1.1024   1.4306   2.2758   2.5152   2.5268
     3.5015   3.5634   3.5946   3.8523   3.8553   3.9445   3.9805   4.0708
     4.0786   4.1566   4.3590   4.4294   4.4481   4.4966   5.0396   5.2000
     5.6935   5.8795   6.2775   6.5540   9.2561   9.8793  10.7660  11.2428
    12.6596  12.7571

          k = 0.1637-0.4910-0.4910 (  4252 PWs)   bands (ev):

   -11.1075 -10.8526   1.0611   1.0611   1.3674   2.3538   2.6113   2.6113
     3.4807   3.5857   3.5857   3.8672   3.8672   3.9076   3.9244   4.0159
     4.1919   4.1919   4.3425   4.3549   4.4287   4.4884   5.1002   5.1002
     5.9301   5.9301   6.1406   6.5109   9.0676  10.1282  10.7462  10.7462
    12.8087  12.8087

          k = 0.3273 0.3273 0.3273 (  4254 PWs)   bands (ev):

   -11.1482 -10.8089   1.0157   1.0157   1.2817   2.4322   2.7675   2.7675
     3.3972   3.4247   3.4247   3.8915   3.8915   3.9459   3.9459   4.0291
     4.2428   4.2536   4.2536   4.5315   4.5315   4.5660   4.9328   4.9328
     5.6309   6.1849   6.3529   6.3529   9.4136  10.4464  10.4464  11.1580
    12.0926  12.0926

          k = 0.3273 0.3273-0.4910 (  4226 PWs)   bands (ev):

   -11.1676 -10.7849   1.0018   1.0100   1.1425   2.6911   2.8059   2.8280
     3.3855   3.4089   3.4339   3.8529   3.8614   3.8825   3.9285   3.9682
     4.2703   4.2812   4.3526   4.5336   4.5404   4.5682   4.7942   4.8823
     5.8135   6.1457   6.1639   6.5471   9.5730  10.2512  10.2748  11.3474
    11.8305  12.1465

          k = 0.3273-0.4910-0.4910 (  4232 PWs)   bands (ev):

   -11.1946 -10.7523   0.9639   0.9639   1.0416   2.9172   2.9716   2.9716
     3.3002   3.4142   3.4142   3.7728   3.8647   3.8647   3.8989   3.9110
     4.3358   4.3358   4.3396   4.4980   4.5639   4.5859   4.7297   4.7297
     5.6820   6.3257   6.3257   6.5339   9.5074  10.2610  10.2610  11.1628
    12.0617  12.0617

          k =-0.4910-0.4910-0.4910 (  4272 PWs)   bands (ev):

   -11.2258 -10.7145   0.9220   0.9220   0.9220   3.2375   3.2375   3.2375
     3.3152   3.3152   3.3152   3.7230   3.7230   3.8538   3.8538   3.8538
     4.3445   4.3445   4.3445   4.5539   4.5539   4.5539   4.6151   4.6151
     5.4720   6.5435   6.5435   6.5435   9.9157   9.9157   9.9157  11.9084
    11.9084  11.9084

     the Fermi energy is     7.2113 ev

!    total energy              =   -1504.28496476 Ry
     total all-electron energy =    -42829.842960 Ry
     estimated scf accuracy    <          7.5E-10 Ry
     smearing contrib. (-TS)   =       0.00031140 Ry
     internal energy E=F+TS    =   -1504.28527616 Ry

     The total energy is F=E-TS. E is the sum of the following terms:
     one-electron contribution =     -77.08051003 Ry
     hartree contribution      =     101.70159931 Ry
     xc contribution           =    -103.96732779 Ry
     ewald contribution        =    -296.47195994 Ry
     one-center paw contrib.   =   -1128.46707771 Ry

     convergence has been achieved in   4 iterations

     Forces acting on atoms (cartesian axes, Ry/au):

     atom    1 type  2   force =     0.00000000    0.00000000    0.00000000
     atom    2 type  2   force =     0.00000000    0.00000000    0.00000000
     atom    3 type  1   force =     0.00000000    0.00000000   -0.00000000
     atom    4 type  1   force =    -0.00000000   -0.00000000    0.00000000
     atom    5 type  1   force =    -0.00000000   -0.00000000   -0.00000000
     atom    6 type  1   force =     0.00000000   -0.00000000    0.00000000

     Total force =     0.000000     Total SCF correction =     0.000000


     Computing stress (Cartesian axis) and pressure

          total   stress  (Ry/bohr**3)                   (kbar)     P=       -0.10
  -0.00000067   0.00000000   0.00000000           -0.10        0.00        0.00
   0.00000000  -0.00000067   0.00000000            0.00       -0.10        0.00
   0.00000000   0.00000000  -0.00000067            0.00        0.00       -0.10

     Energy error            =      4.4E-07 Ry
     Gradient error          =      1.8E-30 Ry/Bohr
     Cell gradient error     =      9.8E-02 kbar

     bfgs converged in   5 scf cycles and   4 bfgs steps
     (criteria: energy <  1.0E-05 Ry, force <  1.0E-04 Ry/Bohr, cell <  5.0E-01 kbar)

     End of BFGS Geometry Optimization

     Final enthalpy           =   -1504.2849647622 Ry

     File ./tmp_vc/ag2o.bfgs deleted, as requested
Begin final coordinates
     new unit-cell volume =    749.31745 a.u.^3 (   111.03739 Ang^3 )
     density =      6.93111 g/cm^3

CELL_PARAMETERS (alat=  8.91950731)
   1.018312521   0.000000000   0.000000000
   0.000000000   1.018312521   0.000000000
   0.000000000   0.000000000   1.018312521

ATOMIC_POSITIONS (crystal)
O                0.0000000000        0.0000000000        0.0000000000
O                0.5000000000        0.5000000000        0.5000000000
Ag               0.2500000000        0.2500000000        0.2500000000
Ag               0.7500000000        0.7500000000        0.2500000000
Ag               0.7500000000        0.2500000000        0.7500000000
Ag               0.2500000000        0.7500000000        0.7500000000
End final coordinates



     Writing config-only to output data dir ./tmp_vc/ag2o.save/ :
     XML data file

     Final scf calculation at the relaxed structure.
     The G-vectors are recalculated for the final unit cell
     Results may differ from those at the preceding step.

     Parallelization info
     --------------------
     sticks:   dense  smooth     PW     G-vecs:    dense   smooth      PW
     Min        1308     656    192                50536    17864    2847
     Max        1309     657    193                50537    17865    2848
     Sum        2617    1313    385               101073    35729    5695

     Using Slab Decomposition



     bravais-lattice index     =            1
     lattice parameter (alat)  =       8.9195  a.u.
     unit-cell volume          =     749.3175 (a.u.)^3
     number of atoms/cell      =            6
     number of atomic types    =            2
     number of electrons       =        56.00
     number of Kohn-Sham states=           34
     kinetic-energy cutoff     =      50.0000  Ry
     charge density cutoff     =     400.0000  Ry
     scf convergence threshold =      1.0E-09
     mixing beta               =       0.7000
     number of iterations used =            8  plain     mixing
     press convergence thresh. =      5.0E-01
     Exchange-correlation= SLA  PW   PBX  PBC
                           (   1   4   3   4   0   0   0)

     celldm(1)=   8.919507  celldm(2)=   0.000000  celldm(3)=   0.000000
     celldm(4)=   0.000000  celldm(5)=   0.000000  celldm(6)=   0.000000

     crystal axes: (cart. coord. in units of alat)
               a(1) = (   1.018313   0.000000   0.000000 )  
               a(2) = (   0.000000   1.018313   0.000000 )  
               a(3) = (   0.000000   0.000000   1.018313 )  

     reciprocal axes: (cart. coord. in units 2 pi/alat)
               b(1) = (  0.982017  0.000000  0.000000 )  
               b(2) = (  0.000000  0.982017  0.000000 )  
               b(3) = (  0.000000  0.000000  0.982017 )  


     PseudoPot. # 1 for Ag read from file:
     /home/jdmin2003/qe-work/pseudo/Ag.pbe-n-kjpaw_psl.1.0.0.UPF
     MD5 check sum: 51099775af2a3182a6a1caffb86952a3
     Pseudo is Projector augmented-wave + core cor, Zval = 11.0
     Generated using &quot;atomic&quot; code by A. Dal Corso  v.6.2.2
     Shape of augmentation charge: PSQ
     Using radial grid of 1237 points,  6 beta functions with: 
                l(1) =   0
                l(2) =   0
                l(3) =   1
                l(4) =   1
                l(5) =   2
                l(6) =   2
     Q(r) pseudized with 0 coefficients 


     PseudoPot. # 2 for O  read from file:
     /home/jdmin2003/qe-work/pseudo/O.pbe-n-kjpaw_psl.1.0.0.UPF
     MD5 check sum: e99d9cef9b487d1ca56f5b95ecd0fd7a
     Pseudo is Projector augmented-wave + core cor, Zval =  6.0
     Generated using &quot;atomic&quot; code by A. Dal Corso  v.6.3
     Shape of augmentation charge: PSQ
     Using radial grid of 1095 points,  4 beta functions with: 
                l(1) =   0
                l(2) =   0
                l(3) =   1
                l(4) =   1
     Q(r) pseudized with 0 coefficients 


     atomic species   valence    mass     pseudopotential
     Ag               11.00   107.86820     Ag( 1.00)
     O                 6.00    15.99940     O ( 1.00)

     48 Sym. Ops., with inversion, found (24 have fractional translation)



   Cartesian axes

     site n.     atom                  positions (alat units)
         1        O      tau(   1) = (   0.0000000   0.0000000   0.0000000  )
         2        O      tau(   2) = (   0.5091563   0.5091563   0.5091563  )
         3        Ag     tau(   3) = (   0.2545781   0.2545781   0.2545781  )
         4        Ag     tau(   4) = (   0.7637344   0.7637344   0.2545781  )
         5        Ag     tau(   5) = (   0.7637344   0.2545781   0.7637344  )
         6        Ag     tau(   6) = (   0.2545781   0.7637344   0.7637344  )

     number of k points=    20  Marzari-Vanderbilt smearing, width (Ry)=  0.0100
                       cart. coord. in units 2pi/alat
        k(    1) = (   0.0000000   0.0000000   0.0000000), wk =   0.0092593
        k(    2) = (   0.0000000   0.0000000   0.1636695), wk =   0.0555556
        k(    3) = (   0.0000000   0.0000000   0.3273389), wk =   0.0555556
        k(    4) = (   0.0000000   0.0000000  -0.4910084), wk =   0.0277778
        k(    5) = (   0.0000000   0.1636695   0.1636695), wk =   0.1111111
        k(    6) = (   0.0000000   0.1636695   0.3273389), wk =   0.2222222
        k(    7) = (   0.0000000   0.1636695  -0.4910084), wk =   0.1111111
        k(    8) = (   0.0000000   0.3273389   0.3273389), wk =   0.1111111
        k(    9) = (   0.0000000   0.3273389  -0.4910084), wk =   0.1111111
        k(   10) = (   0.0000000  -0.4910084  -0.4910084), wk =   0.0277778
        k(   11) = (   0.1636695   0.1636695   0.1636695), wk =   0.0740741
        k(   12) = (   0.1636695   0.1636695   0.3273389), wk =   0.2222222
        k(   13) = (   0.1636695   0.1636695  -0.4910084), wk =   0.1111111
        k(   14) = (   0.1636695   0.3273389   0.3273389), wk =   0.2222222
        k(   15) = (   0.1636695   0.3273389  -0.4910084), wk =   0.2222222
        k(   16) = (   0.1636695  -0.4910084  -0.4910084), wk =   0.0555556
        k(   17) = (   0.3273389   0.3273389   0.3273389), wk =   0.0740741
        k(   18) = (   0.3273389   0.3273389  -0.4910084), wk =   0.1111111
        k(   19) = (   0.3273389  -0.4910084  -0.4910084), wk =   0.0555556
        k(   20) = (  -0.4910084  -0.4910084  -0.4910084), wk =   0.0092593

     Dense  grid:   101073 G-vectors     FFT dimensions: (  60,  60,  60)

     Smooth grid:    35729 G-vectors     FFT dimensions: (  48,  48,  48)

     Estimated max dynamical RAM per process >     219.25 MB

     Estimated total dynamical RAM >     438.49 MB

     Initial potential from superposition of free atoms

     starting charge      55.9984, renormalised to      56.0000
     Starting wfcs are   44 randomized atomic wfcs
     Checking if some PAW data can be deallocated... 

     total cpu time spent up to now is      179.2 secs

     per-process dynamical memory:   109.2 Mb

     Self-consistent Calculation

     iteration #  1     ecut=    50.00 Ry     beta= 0.70
     Davidson diagonalization with overlap
     c_bands:  2 eigenvalues not converged
     c_bands:  2 eigenvalues not converged
     c_bands:  2 eigenvalues not converged
     c_bands:  2 eigenvalues not converged
     c_bands:  2 eigenvalues not converged
     c_bands:  2 eigenvalues not converged
     c_bands:  1 eigenvalues not converged
     c_bands:  1 eigenvalues not converged
     ethr =  1.00E-06,  avg # of iterations = 18.5

     total cpu time spent up to now is      194.1 secs

     WARNING: integrated charge=    56.00626832, expected=    56.00000000

     total energy              =   -1503.82140275 Ry
     estimated scf accuracy    <       0.82771876 Ry

     iteration #  2     ecut=    50.00 Ry     beta= 0.70
     Davidson diagonalization with overlap
     ethr =  1.48E-03,  avg # of iterations =  4.9
     Minimization algorithm failed to find Fermi energy: reverting to bisection
     Possible cause: smearing is larger than the electronic band-gap.

     total cpu time spent up to now is      197.7 secs

     WARNING: integrated charge=    56.00480972, expected=    56.00000000

     total energy              =   -1503.70925943 Ry
     estimated scf accuracy    <       3.27994174 Ry

     iteration #  3     ecut=    50.00 Ry     beta= 0.70
     Davidson diagonalization with overlap
     ethr =  1.48E-03,  avg # of iterations =  4.5

     total cpu time spent up to now is      201.3 secs

     WARNING: integrated charge=    56.00272137, expected=    56.00000000

     total energy              =   -1504.27762187 Ry
     estimated scf accuracy    <       0.01740991 Ry

     iteration #  4     ecut=    50.00 Ry     beta= 0.70
     Davidson diagonalization with overlap
     ethr =  3.11E-05,  avg # of iterations =  3.8

     total cpu time spent up to now is      205.1 secs

     WARNING: integrated charge=    55.99951187, expected=    56.00000000

     total energy              =   -1504.28675723 Ry
     estimated scf accuracy    <       0.00497507 Ry

     iteration #  5     ecut=    50.00 Ry     beta= 0.70
     Davidson diagonalization with overlap
     ethr =  8.88E-06,  avg # of iterations =  2.4

     total cpu time spent up to now is      208.2 secs

     WARNING: integrated charge=    55.99993821, expected=    56.00000000

     total energy              =   -1504.28799915 Ry
     estimated scf accuracy    <       0.00050619 Ry

     iteration #  6     ecut=    50.00 Ry     beta= 0.70
     Davidson diagonalization with overlap
     ethr =  9.04E-07,  avg # of iterations =  3.9

     total cpu time spent up to now is      211.5 secs

     total energy              =   -1504.28813383 Ry
     estimated scf accuracy    <       0.00005122 Ry

     iteration #  7     ecut=    50.00 Ry     beta= 0.70
     Davidson diagonalization with overlap
     ethr =  9.15E-08,  avg # of iterations =  3.9

     total cpu time spent up to now is      215.3 secs

     total energy              =   -1504.28815567 Ry
     estimated scf accuracy    <       0.00000802 Ry

     iteration #  8     ecut=    50.00 Ry     beta= 0.70
     Davidson diagonalization with overlap
     ethr =  1.43E-08,  avg # of iterations =  2.6

     total cpu time spent up to now is      218.4 secs

     total energy              =   -1504.28815696 Ry
     estimated scf accuracy    <       0.00000109 Ry

     iteration #  9     ecut=    50.00 Ry     beta= 0.70
     Davidson diagonalization with overlap
     ethr =  1.95E-09,  avg # of iterations =  4.4

     total cpu time spent up to now is      222.0 secs

     total energy              =   -1504.28815732 Ry
     estimated scf accuracy    <       0.00000004 Ry

     iteration # 10     ecut=    50.00 Ry     beta= 0.70
     Davidson diagonalization with overlap
     ethr =  7.77E-11,  avg # of iterations =  3.8

     total cpu time spent up to now is      225.9 secs

     total energy              =   -1504.28815735 Ry
     estimated scf accuracy    <          1.2E-09 Ry

     iteration # 11     ecut=    50.00 Ry     beta= 0.70
     Davidson diagonalization with overlap
     ethr =  2.10E-12,  avg # of iterations =  4.7

     total cpu time spent up to now is      230.0 secs

     total energy              =   -1504.28815735 Ry
     estimated scf accuracy    <          1.1E-09 Ry

     iteration # 12     ecut=    50.00 Ry     beta= 0.70
     Davidson diagonalization with overlap
     ethr =  1.99E-12,  avg # of iterations =  2.0

     total cpu time spent up to now is      233.0 secs

     End of self-consistent calculation

          k = 0.0000 0.0000 0.0000 (  4457 PWs)   bands (ev):

   -11.2758 -10.6874   0.7923   0.7923   0.7923   2.8958   3.1912   3.1912
     3.3866   3.3866   3.3866   3.8096   3.8096   3.8096   4.2025   4.2025
     4.3567   4.3567   4.3567   4.5402   4.5402   4.5402   4.6893   4.6893
     4.6893   7.1362   7.1866   7.1866   7.1866   9.3929   9.3929  14.2052
    14.2052  14.2052

          k = 0.0000 0.0000 0.1637 (  4485 PWs)   bands (ev):

   -11.2382 -10.7288   0.8799   0.8799   0.9143   2.9768   3.0343   3.0343
     3.0430   3.2569   3.4196   3.6738   3.8218   3.8218   4.2257   4.2947
     4.2961   4.4317   4.4317   4.4870   4.5566   4.6346   4.6346   4.8651
     4.8651   6.5495   7.1099   7.1099   7.4714   9.7436   9.8578  13.7719
    14.1338  14.1339

          k = 0.0000 0.0000 0.3273 (  4500 PWs)   bands (ev):

   -11.1340 -10.8401   1.1101   1.1101   1.2644   2.4349   2.4776   2.4776
     3.3326   3.4528   3.4927   3.6787   3.9458   3.9458   4.1297   4.1499
     4.2875   4.3536   4.3536   4.4117   4.4632   4.5969   4.5969   5.4168
     5.4168   5.5353   6.9105   6.9105   8.2684   9.9367  10.6685  13.4706
    13.9895  13.9907

          k = 0.0000 0.0000-0.4910 (  4484 PWs)   bands (ev):

   -10.9889 -10.9889   1.2909   1.2909   1.7984   1.7984   2.1769   2.1769
     3.5239   3.5239   3.7639   3.7639   3.8904   3.8904   4.0699   4.0699
     4.2439   4.2439   4.3742   4.3742   4.5834   4.5834   4.7525   4.7525
     5.7020   5.7020   6.7625   6.7625   9.2047   9.2047  11.9621  11.9621
    13.9162  13.9162

          k = 0.0000 0.1637 0.1637 (  4481 PWs)   bands (ev):

   -11.2050 -10.7639   0.8682   0.9567   1.1163   2.6519   2.8223   2.9815
     3.1321   3.3074   3.4760   3.6960   3.7724   3.8553   4.2081   4.2278
     4.2714   4.3811   4.4812   4.5427   4.5484   4.5805   4.6887   4.9406
     5.0413   6.3851   6.8145   7.0365   7.7636   9.9940  10.1461  13.1104
    13.8110  14.3333

          k = 0.0000 0.1637 0.3273 (  4490 PWs)   bands (ev):

   -11.1138 -10.8592   1.0220   1.1493   1.4834   2.1446   2.4059   2.6394
     3.4076   3.4656   3.5584   3.7215   3.8360   3.9657   4.0942   4.1363
     4.2043   4.2664   4.3865   4.4540   4.4831   4.4948   4.7673   5.3808
     5.4446   5.6514   6.6992   6.8455   8.4559   9.9998  10.6961  12.7067
    13.2732  14.0934

          k = 0.0000 0.1637-0.4910 (  4460 PWs)   bands (ev):

   -10.9875 -10.9875   1.2327   1.2327   1.8249   1.8249   2.2426   2.2426
     3.5893   3.5893   3.7424   3.7424   3.8713   3.8713   3.9951   3.9951
     4.2708   4.2708   4.3812   4.3812   4.4340   4.4340   4.9936   4.9936
     5.6717   5.6717   6.6703   6.6703   9.2874   9.2874  11.6056  11.6056
    13.9711  13.9711

          k = 0.0000 0.3273 0.3273 (  4454 PWs)   bands (ev):

   -11.0589 -10.9119   1.0310   1.2148   1.7897   1.8676   2.2637   2.6061
     3.5245   3.5936   3.7111   3.7711   3.8191   3.9321   3.9878   4.0317
     4.1250   4.2928   4.3036   4.3553   4.4076   4.4760   5.0188   5.4697
     5.5812   5.6037   6.4612   6.6835   8.8708   9.8149  10.7463  11.7281
    13.5978  13.9952

          k = 0.0000 0.3273-0.4910 (  4460 PWs)   bands (ev):

   -10.9848 -10.9848   1.1504   1.1504   1.8322   1.8322   2.3821   2.3821
     3.6979   3.6979   3.7256   3.7256   3.8953   3.8953   3.9207   3.9207
     4.1843   4.1843   4.3283   4.3283   4.3996   4.3996   5.2543   5.2543
     5.6542   5.6542   6.5086   6.5086   9.3424   9.3424  11.0613  11.0613
    13.9708  13.9709

          k = 0.0000-0.4910-0.4910 (  4468 PWs)   bands (ev):

   -10.9835 -10.9835   1.1193   1.1193   1.8245   1.8245   2.4519   2.4519
     3.6982   3.6982   3.7312   3.7312   3.9490   3.9490   3.9968   3.9968
     4.0680   4.0680   4.2772   4.2772   4.3866   4.3866   5.3350   5.3350
     5.6869   5.6869   6.4349   6.4349   9.3007   9.3007  10.8794  10.8794
    13.8834  13.8834

          k = 0.1637 0.1637 0.1637 (  4464 PWs)   bands (ev):

   -11.1784 -10.7912   0.9334   0.9334   1.3122   2.3454   2.8548   2.8548
     3.2143   3.3742   3.3742   3.7982   3.8431   3.8431   4.1620   4.1620
     4.3089   4.3089   4.3992   4.5304   4.5304   4.6035   4.8806   5.0133
     5.0133   6.4800   6.4800   6.9150   8.0277  10.2796  10.2796  12.4150
    13.7610  13.7610

          k = 0.1637 0.1637 0.3273 (  4458 PWs)   bands (ev):

   -11.1087 -10.8621   1.0303   1.0912   1.6764   1.9117   2.5286   2.6371
     3.4081   3.4665   3.5233   3.8062   3.9272   3.9588   4.0543   4.0712
     4.1785   4.2446   4.2894   4.4765   4.4853   4.5545   4.8759   5.3016
     5.3691   5.8402   6.6052   6.6945   8.6478  10.1677  10.6881  12.3511
    12.5430  13.4473

          k = 0.1637 0.1637-0.4910 (  4470 PWs)   bands (ev):

   -11.0493 -10.9221   1.1689   1.1936   1.5963   2.0747   2.3245   2.3498
     3.5003   3.6422   3.6714   3.8039   3.8244   3.8965   4.0209   4.0326
     4.1473   4.2040   4.3637   4.4215   4.4504   4.5233   4.9198   5.2848
     5.4563   5.7931   6.5201   6.6397   9.3043   9.5347  11.1630  11.7914
    12.9282  12.9875

          k = 0.1637 0.3273 0.3273 (  4472 PWs)   bands (ev):

   -11.0979 -10.8684   1.0260   1.1184   1.5756   2.0524   2.4943   2.6562
     3.4601   3.4875   3.5510   3.9081   3.9291   3.9794   4.0181   4.0406
     4.0526   4.1879   4.2757   4.4340   4.5089   4.5160   5.0587   5.1697
     5.5163   5.9438   6.4025   6.5405   9.0367  10.1140  10.6819  11.6680
    12.2773  13.0311

          k = 0.1637 0.3273-0.4910 (  4482 PWs)   bands (ev):

   -11.0923 -10.8718   1.0910   1.1019   1.4300   2.2753   2.5149   2.5263
     3.5004   3.5623   3.5936   3.8511   3.8541   3.9434   3.9796   4.0699
     4.0776   4.1555   4.3581   4.4286   4.4473   4.4956   5.0389   5.1993
     5.6927   5.8788   6.2766   6.5532   9.2557   9.8789  10.7657  11.2424
    12.6593  12.7567

          k = 0.1637-0.4910-0.4910 (  4480 PWs)   bands (ev):

   -11.1077 -10.8528   1.0607   1.0607   1.3667   2.3532   2.6108   2.6108
     3.4797   3.5846   3.5846   3.8661   3.8661   3.9067   3.9233   4.0150
     4.1910   4.1910   4.3415   4.3539   4.4277   4.4873   5.0994   5.0994
     5.9295   5.9295   6.1396   6.5100   9.0673  10.1278  10.7458  10.7458
    12.8084  12.8084

          k = 0.3273 0.3273 0.3273 (  4476 PWs)   bands (ev):

   -11.1484 -10.8091   1.0152   1.0152   1.2811   2.4316   2.7670   2.7670
     3.3962   3.4237   3.4237   3.8901   3.8901   3.9449   3.9449   4.0283
     4.2419   4.2528   4.2528   4.5307   4.5307   4.5654   4.9321   4.9321
     5.6301   6.1840   6.3522   6.3522   9.4132  10.4461  10.4461  11.1576
    12.0922  12.0922

          k = 0.3273 0.3273-0.4910 (  4492 PWs)   bands (ev):

   -11.1678 -10.7851   1.0012   1.0093   1.1419   2.6905   2.8053   2.8276
     3.3846   3.4077   3.4328   3.8514   3.8601   3.8811   3.9273   3.9669
     4.2692   4.2802   4.3517   4.5326   4.5394   4.5672   4.7933   4.8815
     5.8124   6.1448   6.1630   6.5462   9.5727  10.2509  10.2744  11.3470
    11.8300  12.1460

          k = 0.3273-0.4910-0.4910 (  4492 PWs)   bands (ev):

   -11.1948 -10.7525   0.9633   0.9633   1.0410   2.9167   2.9710   2.9710
     3.2991   3.4133   3.4133   3.7714   3.8634   3.8634   3.8974   3.9100
     4.3348   4.3348   4.3387   4.4970   4.5628   4.5850   4.7288   4.7288
     5.6807   6.3248   6.3248   6.5330   9.5072  10.2608  10.2608  11.1624
    12.0612  12.0612

          k =-0.4910-0.4910-0.4910 (  4416 PWs)   bands (ev):

   -11.2260 -10.7147   0.9216   0.9216   0.9216   3.2371   3.2371   3.2371
     3.3150   3.3150   3.3150   3.7222   3.7222   3.8529   3.8529   3.8529
     4.3438   4.3438   4.3438   4.5533   4.5533   4.5533   4.6145   4.6145
     5.4715   6.5430   6.5430   6.5430   9.9155   9.9155   9.9155  11.9080
    11.9080  11.9080

     the Fermi energy is     7.2104 ev

!    total energy              =   -1504.28815735 Ry
     total all-electron energy =    -42829.846153 Ry
     estimated scf accuracy    <          2.4E-12 Ry
     smearing contrib. (-TS)   =       0.00031151 Ry
     internal energy E=F+TS    =   -1504.28846886 Ry

     The total energy is F=E-TS. E is the sum of the following terms:
     one-electron contribution =     -77.08495243 Ry
     hartree contribution      =     101.70411008 Ry
     xc contribution           =    -103.96819836 Ry
     ewald contribution        =    -296.47195994 Ry
     one-center paw contrib.   =   -1128.46746822 Ry

     convergence has been achieved in  12 iterations

     Forces acting on atoms (cartesian axes, Ry/au):

     atom    1 type  2   force =     0.00000000    0.00000000    0.00000000
     atom    2 type  2   force =     0.00000000    0.00000000    0.00000000
     atom    3 type  1   force =     0.00000000   -0.00000000   -0.00000000
     atom    4 type  1   force =     0.00000000    0.00000000    0.00000000
     atom    5 type  1   force =    -0.00000000   -0.00000000    0.00000000
     atom    6 type  1   force =    -0.00000000   -0.00000000   -0.00000000

     Total force =     0.000000     Total SCF correction =     0.000000


     Computing stress (Cartesian axis) and pressure

          total   stress  (Ry/bohr**3)                   (kbar)     P=       -2.08
  -0.00001412   0.00000000   0.00000000           -2.08        0.00        0.00
   0.00000000  -0.00001412   0.00000000            0.00       -2.08        0.00
   0.00000000   0.00000000  -0.00001412            0.00        0.00       -2.08


     Writing all to output data dir ./tmp_vc/ag2o.save/ :
     XML data file, charge density, pseudopotentials, collected wavefunctions

     init_run     :      3.48s CPU      3.70s WALL (       2 calls)
     electrons    :    200.56s CPU    209.18s WALL (       6 calls)
     update_pot   :      1.23s CPU      1.23s WALL (       4 calls)
     forces       :      4.57s CPU      4.85s WALL (       6 calls)
     stress       :     14.29s CPU     14.99s WALL (       6 calls)

     Called by init_run:
     wfcinit      :      2.05s CPU      2.09s WALL (       2 calls)
     potinit      :      0.76s CPU      0.81s WALL (       2 calls)
     hinit0       :      0.40s CPU      0.41s WALL (       2 calls)

     Called by electrons:
     c_bands      :    160.58s CPU    162.95s WALL (      53 calls)
     sum_band     :     18.58s CPU     22.66s WALL (      53 calls)
     v_of_rho     :      1.28s CPU      1.31s WALL (      57 calls)
     newd         :      6.07s CPU      8.53s WALL (      57 calls)
     PAW_pot      :     17.38s CPU     17.43s WALL (      61 calls)
     mix_rho      :      0.10s CPU      0.10s WALL (      53 calls)

     Called by c_bands:
     init_us_2    :      1.04s CPU      1.05s WALL (    2480 calls)
     cegterg      :    157.91s CPU    160.26s WALL (    1060 calls)

     Called by *egterg:
     cdiaghg      :      4.31s CPU      4.32s WALL (    5324 calls)
     h_psi        :     78.32s CPU     80.53s WALL (    5484 calls)
     s_psi        :     16.78s CPU     16.83s WALL (    5484 calls)
     g_psi        :      0.37s CPU      0.37s WALL (    4384 calls)

     Called by h_psi:
     h_psi:calbec :     17.45s CPU     17.85s WALL (    5484 calls)
     vloc_psi     :     43.81s CPU     45.58s WALL (    5484 calls)
                                        0.00s GPU  (    5484 calls)
     add_vuspsi   :     16.78s CPU     16.84s WALL (    5484 calls)

     General routines
     calbec       :     34.11s CPU     34.63s WALL (    8664 calls)
     fft          :      0.77s CPU      0.80s WALL (     885 calls)
     ffts         :      0.14s CPU      0.14s WALL (     110 calls)
     fftw         :     45.09s CPU     46.86s WALL (  263566 calls)
     interpolate  :      0.17s CPU      0.17s WALL (      57 calls)

     Parallel routines

     PWSCF        :   3m46.20s CPU   3m56.28s WALL


   This run was terminated on:  20:59:47   8Sep2026            

=------------------------------------------------------------------------------=
   JOB DONE.
=------------------------------------------------------------------------------=
