
     Program PWSCF v.7.5 starts on  8Sep2026 at 21: 1:13 

     This program is part of the open-source Quantum ESPRESSO suite
     for quantum simulation of materials; please cite
         "P. Giannozzi et al., J. Phys.:Condens. Matter 21 395502 (2009);
         "P. Giannozzi et al., J. Phys.:Condens. Matter 29 465901 (2017);
         "P. Giannozzi et al., J. Chem. Phys. 152 154105 (2020);
          URL http://www.quantum-espresso.org", 
     in publications or presentations arising from this work. More details at
     http://www.quantum-espresso.org/quote

     Parallel version (MPI & OpenMP), running on       2 processor cores
     Number of MPI processes:                 2
     Threads/MPI process:                     1

     MPI processes distributed on     1 nodes
     14689 MiB available memory on the printing compute node when the environment starts

     Waiting for input...
     Reading input from standard input

     Current dimensions of program PWSCF are:
     Max number of different atomic species (ntypx) = 10
     Max number of k-points (npk) =  40000
     Max angular momentum in pseudopotentials (lmaxx) =  4
     file Ag.pbe-n-kjpaw_psl.1.0.0.UPF: wavefunction(s)  5S 5P renormalized
     file O.pbe-n-kjpaw_psl.1.0.0.UPF: wavefunction(s)  2S 2P renormalized

     R & G space division:  proc/nbgrp/npool/nimage =       2
     Subspace diagonalization in iterative solution of the eigenvalue problem:
     a serial algorithm will be used


     Parallelization info
     --------------------
     sticks:   dense  smooth     PW     G-vecs:    dense   smooth      PW
     Min        1296     652    188                49852    17636    2787
     Max        1297     653    189                49853    17637    2788
     Sum        2593    1305    377                99705    35273    5575

     Using Slab Decomposition



     bravais-lattice index     =            1
     lattice parameter (alat)  =       9.0329  a.u.
     unit-cell volume          =     737.0217 (a.u.)^3
     number of atoms/cell      =            6
     number of atomic types    =            2
     number of electrons       =        56.00
     number of Kohn-Sham states=           34
     kinetic-energy cutoff     =      50.0000  Ry
     charge density cutoff     =     400.0000  Ry
     scf convergence threshold =      1.0E-07
     mixing beta               =       0.7000
     number of iterations used =            8  plain     mixing
     Exchange-correlation= SLA  PW   PBX  PBC
                           (   1   4   3   4   0   0   0)

     celldm(1)=   9.032891  celldm(2)=   0.000000  celldm(3)=   0.000000
     celldm(4)=   0.000000  celldm(5)=   0.000000  celldm(6)=   0.000000

     crystal axes: (cart. coord. in units of alat)
               a(1) = (   1.000000   0.000000   0.000000 )  
               a(2) = (   0.000000   1.000000   0.000000 )  
               a(3) = (   0.000000   0.000000   1.000000 )  

     reciprocal axes: (cart. coord. in units 2 pi/alat)
               b(1) = (  1.000000  0.000000  0.000000 )  
               b(2) = (  0.000000  1.000000  0.000000 )  
               b(3) = (  0.000000  0.000000  1.000000 )  


     PseudoPot. # 1 for Ag read from file:
     /home/jdmin2003/qe-work/pseudo/Ag.pbe-n-kjpaw_psl.1.0.0.UPF
     MD5 check sum: 51099775af2a3182a6a1caffb86952a3
     Pseudo is Projector augmented-wave + core cor, Zval = 11.0
     Generated using &quot;atomic&quot; code by A. Dal Corso  v.6.2.2
     Shape of augmentation charge: PSQ
     Using radial grid of 1237 points,  6 beta functions with: 
                l(1) =   0
                l(2) =   0
                l(3) =   1
                l(4) =   1
                l(5) =   2
                l(6) =   2
     Q(r) pseudized with 0 coefficients 


     PseudoPot. # 2 for O  read from file:
     /home/jdmin2003/qe-work/pseudo/O.pbe-n-kjpaw_psl.1.0.0.UPF
     MD5 check sum: e99d9cef9b487d1ca56f5b95ecd0fd7a
     Pseudo is Projector augmented-wave + core cor, Zval =  6.0
     Generated using &quot;atomic&quot; code by A. Dal Corso  v.6.3
     Shape of augmentation charge: PSQ
     Using radial grid of 1095 points,  4 beta functions with: 
                l(1) =   0
                l(2) =   0
                l(3) =   1
                l(4) =   1
     Q(r) pseudized with 0 coefficients 


     atomic species   valence    mass     pseudopotential
     Ag               11.00   107.86820     Ag( 1.00)
     O                 6.00    15.99940     O ( 1.00)

     48 Sym. Ops., with inversion, found (24 have fractional translation)



   Cartesian axes

     site n.     atom                  positions (alat units)
         1        O      tau(   1) = (   0.0000000   0.0000000   0.0000000  )
         2        O      tau(   2) = (   0.5000000   0.5000000   0.5000000  )
         3        Ag     tau(   3) = (   0.2500000   0.2500000   0.2500000  )
         4        Ag     tau(   4) = (   0.7500000   0.7500000   0.2500000  )
         5        Ag     tau(   5) = (   0.7500000   0.2500000   0.7500000  )
         6        Ag     tau(   6) = (   0.2500000   0.7500000   0.7500000  )

     number of k points=    84  Marzari-Vanderbilt smearing, width (Ry)=  0.0100
                       cart. coord. in units 2pi/alat
        k(    1) = (   0.0000000   0.0000000   0.0000000), wk =   0.0011574
        k(    2) = (   0.0000000   0.0000000   0.0833333), wk =   0.0069444
        k(    3) = (   0.0000000   0.0000000   0.1666667), wk =   0.0069444
        k(    4) = (   0.0000000   0.0000000   0.2500000), wk =   0.0069444
        k(    5) = (   0.0000000   0.0000000   0.3333333), wk =   0.0069444
        k(    6) = (   0.0000000   0.0000000   0.4166667), wk =   0.0069444
        k(    7) = (   0.0000000   0.0000000  -0.5000000), wk =   0.0034722
        k(    8) = (   0.0000000   0.0833333   0.0833333), wk =   0.0138889
        k(    9) = (   0.0000000   0.0833333   0.1666667), wk =   0.0277778
        k(   10) = (   0.0000000   0.0833333   0.2500000), wk =   0.0277778
        k(   11) = (   0.0000000   0.0833333   0.3333333), wk =   0.0277778
        k(   12) = (   0.0000000   0.0833333   0.4166667), wk =   0.0277778
        k(   13) = (   0.0000000   0.0833333  -0.5000000), wk =   0.0138889
        k(   14) = (   0.0000000   0.1666667   0.1666667), wk =   0.0138889
        k(   15) = (   0.0000000   0.1666667   0.2500000), wk =   0.0277778
        k(   16) = (   0.0000000   0.1666667   0.3333333), wk =   0.0277778
        k(   17) = (   0.0000000   0.1666667   0.4166667), wk =   0.0277778
        k(   18) = (   0.0000000   0.1666667  -0.5000000), wk =   0.0138889
        k(   19) = (   0.0000000   0.2500000   0.2500000), wk =   0.0138889
        k(   20) = (   0.0000000   0.2500000   0.3333333), wk =   0.0277778
        k(   21) = (   0.0000000   0.2500000   0.4166667), wk =   0.0277778
        k(   22) = (   0.0000000   0.2500000  -0.5000000), wk =   0.0138889
        k(   23) = (   0.0000000   0.3333333   0.3333333), wk =   0.0138889
        k(   24) = (   0.0000000   0.3333333   0.4166667), wk =   0.0277778
        k(   25) = (   0.0000000   0.3333333  -0.5000000), wk =   0.0138889
        k(   26) = (   0.0000000   0.4166667   0.4166667), wk =   0.0138889
        k(   27) = (   0.0000000   0.4166667  -0.5000000), wk =   0.0138889
        k(   28) = (   0.0000000  -0.5000000  -0.5000000), wk =   0.0034722
        k(   29) = (   0.0833333   0.0833333   0.0833333), wk =   0.0092593
        k(   30) = (   0.0833333   0.0833333   0.1666667), wk =   0.0277778
        k(   31) = (   0.0833333   0.0833333   0.2500000), wk =   0.0277778
        k(   32) = (   0.0833333   0.0833333   0.3333333), wk =   0.0277778
        k(   33) = (   0.0833333   0.0833333   0.4166667), wk =   0.0277778
        k(   34) = (   0.0833333   0.0833333  -0.5000000), wk =   0.0138889
        k(   35) = (   0.0833333   0.1666667   0.1666667), wk =   0.0277778
        k(   36) = (   0.0833333   0.1666667   0.2500000), wk =   0.0555556
        k(   37) = (   0.0833333   0.1666667   0.3333333), wk =   0.0555556
        k(   38) = (   0.0833333   0.1666667   0.4166667), wk =   0.0555556
        k(   39) = (   0.0833333   0.1666667  -0.5000000), wk =   0.0277778
        k(   40) = (   0.0833333   0.2500000   0.2500000), wk =   0.0277778
        k(   41) = (   0.0833333   0.2500000   0.3333333), wk =   0.0555556
        k(   42) = (   0.0833333   0.2500000   0.4166667), wk =   0.0555556
        k(   43) = (   0.0833333   0.2500000  -0.5000000), wk =   0.0277778
        k(   44) = (   0.0833333   0.3333333   0.3333333), wk =   0.0277778
        k(   45) = (   0.0833333   0.3333333   0.4166667), wk =   0.0555556
        k(   46) = (   0.0833333   0.3333333  -0.5000000), wk =   0.0277778
        k(   47) = (   0.0833333   0.4166667   0.4166667), wk =   0.0277778
        k(   48) = (   0.0833333   0.4166667  -0.5000000), wk =   0.0277778
        k(   49) = (   0.0833333  -0.5000000  -0.5000000), wk =   0.0069444
        k(   50) = (   0.1666667   0.1666667   0.1666667), wk =   0.0092593
        k(   51) = (   0.1666667   0.1666667   0.2500000), wk =   0.0277778
        k(   52) = (   0.1666667   0.1666667   0.3333333), wk =   0.0277778
        k(   53) = (   0.1666667   0.1666667   0.4166667), wk =   0.0277778
        k(   54) = (   0.1666667   0.1666667  -0.5000000), wk =   0.0138889
        k(   55) = (   0.1666667   0.2500000   0.2500000), wk =   0.0277778
        k(   56) = (   0.1666667   0.2500000   0.3333333), wk =   0.0555556
        k(   57) = (   0.1666667   0.2500000   0.4166667), wk =   0.0555556
        k(   58) = (   0.1666667   0.2500000  -0.5000000), wk =   0.0277778
        k(   59) = (   0.1666667   0.3333333   0.3333333), wk =   0.0277778
        k(   60) = (   0.1666667   0.3333333   0.4166667), wk =   0.0555556
        k(   61) = (   0.1666667   0.3333333  -0.5000000), wk =   0.0277778
        k(   62) = (   0.1666667   0.4166667   0.4166667), wk =   0.0277778
        k(   63) = (   0.1666667   0.4166667  -0.5000000), wk =   0.0277778
        k(   64) = (   0.1666667  -0.5000000  -0.5000000), wk =   0.0069444
        k(   65) = (   0.2500000   0.2500000   0.2500000), wk =   0.0092593
        k(   66) = (   0.2500000   0.2500000   0.3333333), wk =   0.0277778
        k(   67) = (   0.2500000   0.2500000   0.4166667), wk =   0.0277778
        k(   68) = (   0.2500000   0.2500000  -0.5000000), wk =   0.0138889
        k(   69) = (   0.2500000   0.3333333   0.3333333), wk =   0.0277778
        k(   70) = (   0.2500000   0.3333333   0.4166667), wk =   0.0555556
        k(   71) = (   0.2500000   0.3333333  -0.5000000), wk =   0.0277778
        k(   72) = (   0.2500000   0.4166667   0.4166667), wk =   0.0277778
        k(   73) = (   0.2500000   0.4166667  -0.5000000), wk =   0.0277778
        k(   74) = (   0.2500000  -0.5000000  -0.5000000), wk =   0.0069444
        k(   75) = (   0.3333333   0.3333333   0.3333333), wk =   0.0092593
        k(   76) = (   0.3333333   0.3333333   0.4166667), wk =   0.0277778
        k(   77) = (   0.3333333   0.3333333  -0.5000000), wk =   0.0138889
        k(   78) = (   0.3333333   0.4166667   0.4166667), wk =   0.0277778
        k(   79) = (   0.3333333   0.4166667  -0.5000000), wk =   0.0277778
        k(   80) = (   0.3333333  -0.5000000  -0.5000000), wk =   0.0069444
        k(   81) = (   0.4166667   0.4166667   0.4166667), wk =   0.0092593
        k(   82) = (   0.4166667   0.4166667  -0.5000000), wk =   0.0138889
        k(   83) = (   0.4166667  -0.5000000  -0.5000000), wk =   0.0069444
        k(   84) = (  -0.5000000  -0.5000000  -0.5000000), wk =   0.0011574

     Dense  grid:    99705 G-vectors     FFT dimensions: (  60,  60,  60)

     Smooth grid:    35273 G-vectors     FFT dimensions: (  48,  48,  48)

     Estimated max dynamical RAM per process >     277.13 MB

     Estimated total dynamical RAM >     554.26 MB

     Initial potential from superposition of free atoms

     starting charge      55.9984, renormalised to      56.0000
     Starting wfcs are   44 randomized atomic wfcs
     Checking if some PAW data can be deallocated... 

     total cpu time spent up to now is        5.4 secs

     per-process dynamical memory:   141.2 Mb

     Self-consistent Calculation

     iteration #  1     ecut=    50.00 Ry     beta= 0.70
     Davidson diagonalization with overlap
     ethr =  1.00E-02,  avg # of iterations =  3.4

     total cpu time spent up to now is       16.2 secs

     WARNING: integrated charge=    56.00303183, expected=    56.00000000

     total energy              =   -1503.74522077 Ry
     estimated scf accuracy    <       0.85567789 Ry

     iteration #  2     ecut=    50.00 Ry     beta= 0.70
     Davidson diagonalization with overlap
     ethr =  1.53E-03,  avg # of iterations =  4.7
     Minimization algorithm failed to find Fermi energy: reverting to bisection
     Possible cause: smearing is larger than the electronic band-gap.

     total cpu time spent up to now is       31.1 secs

     WARNING: integrated charge=    56.00230472, expected=    56.00000000

     total energy              =   -1503.74974353 Ry
     estimated scf accuracy    <       3.09678554 Ry

     iteration #  3     ecut=    50.00 Ry     beta= 0.70
     Davidson diagonalization with overlap
     ethr =  1.53E-03,  avg # of iterations =  4.8

     total cpu time spent up to now is       44.3 secs

     WARNING: integrated charge=    56.00156231, expected=    56.00000000

     total energy              =   -1504.27785098 Ry
     estimated scf accuracy    <       0.02869257 Ry

     iteration #  4     ecut=    50.00 Ry     beta= 0.70
     Davidson diagonalization with overlap
     ethr =  5.12E-05,  avg # of iterations =  4.1

     total cpu time spent up to now is       56.8 secs

     WARNING: integrated charge=    56.00001286, expected=    56.00000000

     total energy              =   -1504.28508414 Ry
     estimated scf accuracy    <       0.00532098 Ry

     iteration #  5     ecut=    50.00 Ry     beta= 0.70
     Davidson diagonalization with overlap
     ethr =  9.50E-06,  avg # of iterations =  3.4

     total cpu time spent up to now is       68.7 secs

     WARNING: integrated charge=    55.99994900, expected=    56.00000000

     total energy              =   -1504.28652659 Ry
     estimated scf accuracy    <       0.00050932 Ry

     iteration #  6     ecut=    50.00 Ry     beta= 0.70
     Davidson diagonalization with overlap
     ethr =  9.09E-07,  avg # of iterations =  5.3

     total cpu time spent up to now is       83.0 secs

     total energy              =   -1504.28667355 Ry
     estimated scf accuracy    <       0.00011930 Ry

     iteration #  7     ecut=    50.00 Ry     beta= 0.70
     Davidson diagonalization with overlap
     ethr =  2.13E-07,  avg # of iterations =  2.6

     total cpu time spent up to now is       95.2 secs

     WARNING: integrated charge=    56.00000917, expected=    56.00000000

     total energy              =   -1504.28670614 Ry
     estimated scf accuracy    <       0.00000401 Ry

     iteration #  8     ecut=    50.00 Ry     beta= 0.70
     Davidson diagonalization with overlap
     ethr =  7.16E-09,  avg # of iterations =  4.5

     total cpu time spent up to now is      109.1 secs

     total energy              =   -1504.28670767 Ry
     estimated scf accuracy    <       0.00000202 Ry

     iteration #  9     ecut=    50.00 Ry     beta= 0.70
     Davidson diagonalization with overlap
     ethr =  3.61E-09,  avg # of iterations =  1.2

     total cpu time spent up to now is      118.1 secs

     total energy              =   -1504.28670764 Ry
     estimated scf accuracy    <       0.00000038 Ry

     iteration # 10     ecut=    50.00 Ry     beta= 0.70
     Davidson diagonalization with overlap
     ethr =  6.76E-10,  avg # of iterations =  2.7

     total cpu time spent up to now is      130.0 secs

     End of self-consistent calculation

          k = 0.0000 0.0000 0.0000 (  4385 PWs)   bands (ev):

   -11.1697 -10.5513   0.8882   0.8882   0.8882   3.0343   3.3486   3.3486
     3.5493   3.5493   3.5493   3.9559   3.9559   3.9559   4.3945   4.3945
     4.5521   4.5521   4.5521   4.7403   4.7403   4.7403   4.8976   4.8976
     4.8976   7.4072   7.4364   7.4364   7.4364   9.5821   9.5821  14.5328
    14.5328  14.5328

          k = 0.0000 0.0000 0.0833 (  4401 PWs)   bands (ev):

   -11.1597 -10.5624   0.9108   0.9108   0.9197   3.0650   3.3039   3.3656
     3.4347   3.4347   3.5583   3.9060   3.9609   3.9609   4.4002   4.4270
     4.5357   4.6067   4.6067   4.7309   4.7918   4.7918   4.8559   4.9030
     4.9030   7.2313   7.4161   7.4161   7.4950   9.6748   9.7553  14.3377
    14.5130  14.5130

          k = 0.0000 0.0000 0.1667 (  4392 PWs)   bands (ev):

   -11.1302 -10.5949   0.9775   0.9775   1.0132   3.1176   3.1780   3.1780
     3.1894   3.4168   3.5834   3.8367   3.9920   3.9920   4.4176   4.4835
     4.4878   4.6282   4.6282   4.6841   4.7605   4.8409   4.8409   5.0628
     5.0628   6.7714   7.3572   7.3572   7.7405   9.9415  10.0805  14.0762
    14.4588  14.4589

          k = 0.0000 0.0000 0.2500 (  4408 PWs)   bands (ev):

   -11.0831 -10.6461   1.0825   1.0825   1.1654   2.8803   2.8844   2.8844
     3.3118   3.5014   3.6194   3.8198   4.0502   4.0502   4.4133   4.4450
     4.5337   4.5346   4.6027   4.6027   4.7053   4.8211   4.8211   5.3475
     5.3475   6.2427   7.2648   7.2648   8.1022  10.2729  10.3549  14.0699
    14.3846  14.3846

          k = 0.0000 0.0000 0.3333 (  4372 PWs)   bands (ev):

   -11.0210 -10.7122   1.2133   1.2133   1.3718   2.5658   2.6066   2.6066
     3.4829   3.6180   3.6585   3.8527   4.1273   4.1273   4.3173   4.3364
     4.4817   4.5488   4.5488   4.5984   4.6632   4.8019   4.8019   5.6217
     5.6217   5.7318   7.1518   7.1518   8.5366  10.1955  10.8853  13.7273
    14.3098  14.3098

          k = 0.0000 0.0000 0.4167 (  4400 PWs)   bands (ev):

   -10.9480 -10.7882   1.3396   1.3396   1.6252   2.2361   2.3883   2.3883
     3.6258   3.6875   3.7646   3.9371   4.1319   4.2023   4.2096   4.2096
     4.4784   4.4784   4.5242   4.6178   4.7161   4.7907   4.7907   5.2844
     5.8306   5.8306   7.0462   7.0462   9.0055   9.8943  11.5069  12.9459
    14.2545  14.2551

          k = 0.0000 0.0000-0.5000 (  4436 PWs)   bands (ev):

   -10.8687 -10.8687   1.3985   1.3985   1.9172   1.9172   2.2983   2.2983
     3.6872   3.6872   3.9377   3.9377   4.0690   4.0690   4.2569   4.2569
     4.4343   4.4343   4.5706   4.5706   4.7871   4.7871   4.9382   4.9382
     5.9127   5.9127   6.9993   6.9993   9.4732   9.4732  12.1996  12.1996
    14.2341  14.2342

          k = 0.0000 0.0833 0.0833 (  4407 PWs)   bands (ev):

   -11.1500 -10.5731   0.9086   0.9330   0.9750   3.0935   3.2711   3.2915
     3.3406   3.4127   3.5728   3.8953   3.9543   3.9596   4.4023   4.4257
     4.5330   4.6195   4.6872   4.7252   4.8034   4.8257   4.8546   4.8945
     4.9178   7.1458   7.3064   7.3960   7.5802   9.7963   9.8687  14.0496
    14.4879  14.6736

          k = 0.0000 0.0833 0.1667 (  4398 PWs)   bands (ev):

   -11.1214 -10.6043   0.9537   0.9977   1.0864   3.0145   3.1181   3.1783
     3.2035   3.4343   3.6011   3.8499   3.9690   3.9986   4.4098   4.4443
     4.4919   4.6128   4.6934   4.7276   4.7556   4.8208   4.8330   5.0691
     5.0975   6.7521   7.2400   7.3378   7.8174  10.0384  10.1562  13.7481
    14.4000  14.7414

          k = 0.0000 0.0833 0.2500 (  4398 PWs)   bands (ev):

   -11.0757 -10.6537   1.0447   1.0991   1.2466   2.7252   2.8490   2.9701
     3.3357   3.5093   3.6375   3.8351   4.0171   4.0601   4.4192   4.4345
     4.4596   4.5121   4.6224   4.7006   4.7027   4.7928   4.8329   5.3399
     5.3690   6.2552   7.1748   7.2466   8.1668  10.3055  10.4276  13.6759
    14.0951  14.5238

          k = 0.0000 0.0833 0.3333 (  4396 PWs)   bands (ev):

   -11.0156 -10.7173   1.1704   1.2239   1.4490   2.4340   2.5876   2.7045
     3.5031   3.6210   3.6759   3.8631   4.0846   4.1341   4.3230   4.3296
     4.4616   4.4771   4.5601   4.6649   4.6713   4.7660   4.8396   5.6081
     5.6171   5.7809   7.0884   7.1344   8.5866  10.2210  10.8997  13.4646
    13.8668  14.3766

          k = 0.0000 0.0833 0.4167 (  4390 PWs)   bands (ev):

   -10.9450 -10.7906   1.3032   1.3401   1.6825   2.1689   2.3831   2.4521
     3.6439   3.7047   3.7638   3.9389   4.1139   4.1503   4.2050   4.2351
     4.4521   4.4941   4.5216   4.6218   4.6782   4.7439   4.8833   5.3393
     5.8160   5.8338   7.0043   7.0276   9.0414   9.9147  11.4680  12.7764
    14.1140  14.2993

          k = 0.0000 0.0833-0.5000 (  4394 PWs)   bands (ev):

   -10.8683 -10.8683   1.3807   1.3807   1.9269   1.9269   2.3160   2.3160
     3.7046   3.7046   3.9331   3.9331   4.0598   4.0598   4.2338   4.2338
     4.4479   4.4479   4.5722   4.5722   4.7170   4.7170   5.0347   5.0347
     5.9036   5.9036   6.9731   6.9731   9.4981   9.4981  12.1014  12.1014
    14.2350  14.2352

          k = 0.0000 0.1667 0.1667 (  4389 PWs)   bands (ev):

   -11.0955 -10.6320   0.9657   1.0561   1.2199   2.7854   2.9600   3.1259
     3.2769   3.4687   3.6411   3.8624   3.9458   4.0321   4.3990   4.4170
     4.4640   4.5753   4.6810   4.7439   4.7519   4.7852   4.8858   5.1396
     5.2373   6.6041   7.0507   7.2816   8.0315  10.2100  10.3764  13.4055
    14.1059  14.6200

          k = 0.0000 0.1667 0.2500 (  4402 PWs)   bands (ev):

   -11.0541 -10.6757   1.0244   1.1465   1.3938   2.5212   2.7492   2.9823
     3.4059   3.5319   3.6857   3.8710   3.9630   4.0890   4.3924   4.3977
     4.4176   4.4737   4.6406   4.6780   4.7311   4.7386   4.9358   5.3439
     5.4486   6.2490   6.9765   7.1939   8.3457  10.3525  10.6076  13.3243
    13.5580  14.4781

          k = 0.0000 0.1667 0.3333 (  4392 PWs)   bands (ev):

   -10.9998 -10.7323   1.1231   1.2532   1.5957   2.2681   2.5335   2.7735
     3.5602   3.6311   3.7258   3.8959   4.0137   4.1484   4.2805   4.3231
     4.3918   4.4593   4.5823   4.6523   4.6838   4.6951   4.9672   5.5854
     5.6473   5.8563   6.9347   7.0851   8.7233  10.2538  10.9288  12.9665
    13.5571  14.3969

          k = 0.0000 0.1667 0.4167 (  4383 PWs)   bands (ev):

   -10.9362 -10.7977   1.2432   1.3393   1.7988   2.0673   2.3709   2.5434
     3.6945   3.7539   3.7604   3.9530   4.0507   4.1256   4.1847   4.2108
     4.4112   4.5166   4.5210   4.6282   4.6417   4.6516   5.0369   5.4553
     5.7843   5.8423   6.8990   6.9767   9.1345   9.9475  11.3550  12.3913
    13.9630  14.3462

          k = 0.0000 0.1667-0.5000 (  4406 PWs)   bands (ev):

   -10.8673 -10.8673   1.3387   1.3387   1.9438   1.9438   2.3663   2.3663
     3.7542   3.7542   3.9155   3.9155   4.0494   4.0494   4.1790   4.1790
     4.4613   4.4613   4.5775   4.5775   4.6309   4.6309   5.1908   5.1908
     5.8815   5.8815   6.9052   6.9052   9.5534   9.5534  11.8494  11.8494
    14.2756  14.2762

          k = 0.0000 0.2500 0.2500 (  4396 PWs)   bands (ev):

   -11.0197 -10.7107   1.0468   1.2170   1.5720   2.3034   2.6063   2.9184
     3.5129   3.5794   3.7481   3.9097   3.9395   4.1283   4.3149   4.3674
     4.4050   4.4136   4.6030   4.6301   4.7040   4.7094   5.0475   5.4280
     5.5837   6.1224   6.8244   7.1121   8.6061  10.3556  10.7741  12.9860
    13.2776  14.4110

          k = 0.0000 0.2500 0.3333 (  4387 PWs)   bands (ev):

   -10.9748 -10.7563   1.1094   1.2922   1.7610   2.1084   2.4560   2.7863
     3.6331   3.6669   3.8005   3.9455   3.9631   4.1607   4.2057   4.2856
     4.3472   4.4559   4.5661   4.5804   4.6531   4.6871   5.1106   5.5973
     5.7214   5.8752   6.7759   7.0105   8.9156  10.2122  10.9536  12.4473
    13.5639  14.3497

          k = 0.0000 0.2500 0.4167 (  4392 PWs)   bands (ev):

   -10.9223 -10.8092   1.2006   1.3314   1.9118   1.9829   2.3668   2.6110
     3.7529   3.7719   3.8289   3.9882   3.9962   4.0912   4.1595   4.1677
     4.3678   4.5076   4.5219   4.5611   4.6040   4.6469   5.1928   5.5682
     5.7651   5.8535   6.7776   6.9045   9.2512   9.9321  11.2130  11.9667
    14.0474  14.3170

          k = 0.0000 0.2500-0.5000 (  4396 PWs)   bands (ev):

   -10.8658 -10.8658   1.2923   1.2923   1.9524   1.9524   2.4378   2.4378
     3.8264   3.8264   3.8897   3.8897   4.0569   4.0569   4.1226   4.1226
     4.4323   4.4323   4.5681   4.5681   4.5926   4.5926   5.3420   5.3420
     5.8622   5.8622   6.8196   6.8196   9.5967   9.5967  11.5533  11.5533
    14.3183  14.3183

          k = 0.0000 0.3333 0.3333 (  4426 PWs)   bands (ev):

   -10.9423 -10.7877   1.1321   1.3202   1.9090   1.9857   2.3880   2.7389
     3.6904   3.7539   3.8815   3.9463   3.9966   4.1133   4.1701   4.2147
     4.3107   4.4862   4.4940   4.5511   4.6066   4.6756   5.2214   5.6757
     5.7878   5.8104   6.6913   6.9189   9.1341  10.0591  11.0048  11.9827
    13.8730  14.2883

          k = 0.0000 0.3333 0.4167 (  4410 PWs)   bands (ev):

   -10.9046 -10.8246   1.1856   1.3092   1.9334   1.9747   2.4001   2.6393
     3.7693   3.8384   3.9120   3.9596   4.0387   4.0443   4.1355   4.1556
     4.3134   4.4376   4.5226   4.5366   4.5612   4.6441   5.3240   5.6261
     5.7861   5.8696   6.6891   6.8231   9.3621   9.8355  11.1214  11.6034
    14.2505  14.3094

          k = 0.0000 0.3333-0.5000 (  4400 PWs)   bands (ev):

   -10.8644 -10.8644   1.2543   1.2543   1.9509   1.9509   2.5099   2.5099
     3.8696   3.8696   3.8940   3.8940   4.0761   4.0761   4.1008   4.1008
     4.3705   4.3705   4.5246   4.5246   4.5967   4.5967   5.4579   5.4579
     5.8634   5.8634   6.7400   6.7400   9.5961   9.5961  11.3178  11.3178
    14.2583  14.2583

          k = 0.0000 0.4167 0.4167 (  4408 PWs)   bands (ev):

   -10.8844 -10.8430   1.1977   1.2724   1.9243   1.9745   2.4774   2.6217
     3.8064   3.8843   3.9253   3.9349   4.0562   4.0876   4.1212   4.1718
     4.2680   4.3676   4.4938   4.5156   4.5600   4.6214   5.4283   5.6000
     5.8399   5.8901   6.6597   6.7448   9.4600   9.6939  11.1134  11.3425
    14.1997  14.2364

          k = 0.0000 0.4167-0.5000 (  4410 PWs)   bands (ev):

   -10.8634 -10.8634   1.2304   1.2304   1.9457   1.9457   2.5622   2.5622
     3.8649   3.8649   3.9114   3.9114   4.1120   4.1120   4.1318   4.1318
     4.3007   4.3007   4.4884   4.4884   4.5889   4.5889   5.5217   5.5217
     5.8842   5.8842   6.6844   6.6844   9.5637   9.5637  11.1847  11.1847
    14.1919  14.1919

          k = 0.0000-0.5000-0.5000 (  4388 PWs)   bands (ev):

   -10.8630 -10.8630   1.2225   1.2225   1.9431   1.9431   2.5813   2.5813
     3.8692   3.8692   3.9027   3.9027   4.1322   4.1322   4.1758   4.1758
     4.2518   4.2518   4.4724   4.4724   4.5832   4.5832   5.5404   5.5404
     5.8972   5.8972   6.6645   6.6645   9.5446   9.5446  11.1443  11.1443
    14.1664  14.1665

          k = 0.0833 0.0833 0.0833 (  4391 PWs)   bands (ev):

   -11.1406 -10.5833   0.9301   0.9301   1.0299   3.1068   3.1733   3.2704
     3.2704   3.4960   3.4960   3.9326   3.9326   3.9543   4.4039   4.4039
     4.5804   4.5804   4.7142   4.7755   4.8160   4.8160   4.8592   4.9198
     4.9198   7.1463   7.1463   7.3659   7.6627   9.9375   9.9375  13.7954
    14.6400  14.6400

          k = 0.0833 0.0833 0.1667 (  4404 PWs)   bands (ev):

   -11.1130 -10.6133   0.9642   0.9926   1.1486   2.8990   3.1173   3.1571
     3.2229   3.4566   3.5723   3.8860   3.9672   3.9936   4.4010   4.4035
     4.5269   4.5897   4.6837   4.7544   4.7784   4.8270   4.8383   5.0935
     5.0971   6.7487   7.1384   7.3037   7.8925  10.1416  10.2120  13.4775
    14.4698  14.7189

          k = 0.0833 0.0833 0.2500 (  4405 PWs)   bands (ev):

   -11.0689 -10.6605   1.0442   1.0902   1.3139   2.6180   2.8658   2.9675
     3.3571   3.5175   3.6329   3.8613   4.0121   4.0593   4.3817   4.4249
     4.4741   4.4930   4.6165   4.6993   4.7306   4.8019   4.8463   5.3501
     5.3606   6.2743   7.1072   7.2102   8.2307  10.3633  10.4714  13.3696
    13.9651  14.6382

          k = 0.0833 0.0833 0.3333 (  4406 PWs)   bands (ev):

   -11.0112 -10.7214   1.1614   1.2095   1.5156   2.3417   2.6162   2.7215
     3.5175   3.6236   3.6858   3.8742   4.0777   4.1304   4.3108   4.3154
     4.4548   4.4661   4.5444   4.6682   4.6778   4.7803   4.8617   5.5942
     5.6026   5.8333   7.0502   7.0951   8.6373  10.2546  10.9093  13.3204
    13.5176  14.4845

          k = 0.0833 0.0833 0.4167 (  4393 PWs)   bands (ev):

   -10.9440 -10.7909   1.2899   1.3214   1.7323   2.1106   2.4214   2.4697
     3.6447   3.7333   3.7618   3.9296   4.1147   4.1344   4.2087   4.2149
     4.4586   4.4713   4.5202   4.6267   4.6402   4.7677   4.9144   5.3874
     5.7775   5.8588   6.9858   6.9874   9.0788   9.9410  11.4310  12.6699
    13.7594  14.3311

          k = 0.0833 0.0833-0.5000 (  4390 PWs)   bands (ev):

   -10.8858 -10.8500   1.3569   1.3715   1.8687   1.9990   2.3294   2.3431
     3.6835   3.7576   3.9035   3.9556   4.0000   4.1058   4.1893   4.2437
     4.4352   4.4616   4.5658   4.5829   4.6305   4.7640   5.0073   5.1627
     5.8480   5.9377   6.9363   6.9582   9.4989   9.5541  11.9267  12.1314
    13.8848  14.2495

          k = 0.0833 0.1667 0.1667 (  4400 PWs)   bands (ev):

   -11.0884 -10.6393   0.9829   1.0391   1.2817   2.6778   2.9952   3.0960
     3.2982   3.4862   3.5855   3.9250   3.9533   4.0262   4.3749   4.3859
     4.5033   4.5552   4.6538   4.7425   4.7475   4.8012   4.9478   5.1452
     5.2202   6.6338   6.9616   7.2396   8.1013  10.3078  10.4092  13.1218
    14.1115  14.6497

          k = 0.0833 0.1667 0.2500 (  4394 PWs)   bands (ev):

   -11.0492 -10.6804   1.0363   1.1244   1.4567   2.4253   2.7977   2.9631
     3.4192   3.5383   3.6466   3.9158   3.9887   4.0860   4.3394   4.4019
     4.4334   4.4635   4.6073   4.6871   4.7195   4.7706   4.9761   5.3385
     5.4231   6.2885   6.9260   7.1480   8.4075  10.4330  10.6234  12.9907
    13.5309  14.4686

          k = 0.0833 0.1667 0.3333 (  4393 PWs)   bands (ev):

   -10.9984 -10.7331   1.1277   1.2263   1.6568   2.1838   2.5915   2.7697
     3.5589   3.6305   3.7142   3.9129   4.0508   4.1438   4.2691   4.2919
     4.4009   4.4518   4.5426   4.6545   4.6820   4.7375   4.9906   5.5530
     5.6197   5.9241   6.9124   7.0372   8.7749  10.3083  10.9277  12.9320
    13.1520  14.2544

          k = 0.0833 0.1667 0.4167 (  4385 PWs)   bands (ev):

   -10.9412 -10.7917   1.2395   1.3128   1.8228   2.0299   2.4306   2.5510
     3.6632   3.7534   3.7912   3.9288   4.0875   4.1300   4.1707   4.2067
     4.3970   4.4770   4.5150   4.6234   4.6411   4.7109   5.0426   5.4902
     5.7240   5.8876   6.8820   6.9389   9.1746   9.9910  11.3188  12.3765
    13.4518  14.0319

          k = 0.0833 0.1667-0.5000 (  4394 PWs)   bands (ev):

   -10.9013 -10.8321   1.3146   1.3333   1.8209   2.0731   2.3839   2.4011
     3.6942   3.8330   3.8677   3.9385   3.9860   4.1143   4.1519   4.2095
     4.4211   4.4343   4.5644   4.5961   4.6126   4.7015   5.1138   5.3212
     5.7825   5.9530   6.8542   6.9057   9.5318   9.6515  11.6500  11.9917
    13.6847  13.8464

          k = 0.0833 0.2500 0.2500 (  4396 PWs)   bands (ev):

   -11.0181 -10.7117   1.0564   1.1892   1.6343   2.2142   2.6691   2.9069
     3.5132   3.5781   3.6938   3.9711   3.9781   4.1268   4.2934   4.3637
     4.3858   4.4061   4.5740   4.6353   4.7127   4.7368   5.0874   5.3928
     5.5484   6.1867   6.7902   7.0632   8.6636  10.4391  10.7777  12.8466
    13.0041  14.2937

          k = 0.0833 0.2500 0.3333 (  4392 PWs)   bands (ev):

   -10.9788 -10.7513   1.1129   1.2607   1.8152   2.0310   2.5293   2.7880
     3.6195   3.6490   3.7583   3.9730   4.0395   4.1573   4.2046   4.2663
     4.3272   4.4497   4.5195   4.6008   4.6920   4.6985   5.1333   5.5244
     5.6876   5.9732   6.7611   6.9625   8.9659  10.2860  10.9433  12.4412
    13.0536  14.1084

          k = 0.0833 0.2500 0.4167 (  4393 PWs)   bands (ev):

   -10.9374 -10.7929   1.1963   1.3043   1.8237   2.0573   2.4332   2.6261
     3.7035   3.7438   3.8348   3.9718   4.0723   4.1060   4.1342   4.1957
     4.3282   4.4569   4.5180   4.5935   4.6510   4.6598   5.1882   5.5537
     5.7268   5.9162   6.7576   6.8731   9.2878  10.0024  11.1755  11.9845
    13.3626  13.9068

          k = 0.0833 0.2500-0.5000 (  4400 PWs)   bands (ev):

   -10.9141 -10.8162   1.2706   1.2847   1.7764   2.1339   2.4637   2.4763
     3.7294   3.8329   3.8690   3.9481   4.0200   4.0745   4.1530   4.1669
     4.3518   4.4184   4.5684   4.5972   4.6170   4.6334   5.2463   5.4574
     5.7505   5.9593   6.7505   6.8387   9.5369   9.7572  11.3737  11.7108
    13.6319  13.6965

          k = 0.0833 0.3333 0.3333 (  4398 PWs)   bands (ev):

   -10.9553 -10.7734   1.1309   1.2887   1.8415   2.0328   2.4672   2.7521
     3.6797   3.6980   3.8113   4.0194   4.0620   4.1282   4.1639   4.2150
     4.2710   4.4689   4.4812   4.5550   4.6598   4.6870   5.2358   5.5360
     5.7814   5.9444   6.6781   6.8770   9.1743  10.1450  10.9882  11.9799
    13.2010  13.9824

          k = 0.0833 0.3333 0.4167 (  4402 PWs)   bands (ev):

   -10.9335 -10.7942   1.1778   1.2845   1.7637   2.1424   2.4598   2.6643
     3.7448   3.7530   3.8599   4.0112   4.0585   4.1032   4.1232   4.1980
     4.2659   4.4094   4.5306   4.5401   4.6161   4.6625   5.3095   5.5314
     5.8266   5.9355   6.6570   6.8043   9.3671   9.9538  11.0896  11.6085
    13.4484  13.8454

          k = 0.0833 0.3333-0.5000 (  4388 PWs)   bands (ev):

   -10.9236 -10.8036   1.2353   1.2425   1.7366   2.1754   2.5443   2.5504
     3.7663   3.8159   3.8509   3.9952   4.0511   4.0696   4.1303   4.1935
     4.2854   4.3770   4.5432   4.5677   4.5836   4.6424   5.3600   5.4918
     5.8234   5.9657   6.6521   6.7765   9.4702   9.8446  11.1969  11.4082
    13.6602  13.6877

          k = 0.0833 0.4167 0.4167 (  4406 PWs)   bands (ev):

   -10.9305 -10.7952   1.1856   1.2516   1.7218   2.1879   2.5258   2.6559
     3.7620   3.7924   3.8663   4.0237   4.0310   4.0906   4.1771   4.2166
     4.2321   4.3507   4.5021   4.5484   4.5805   4.6472   5.3926   5.4992
     5.9179   5.9468   6.5996   6.7517   9.3804   9.9096  11.0849  11.3276
    13.5897  13.7885

          k = 0.0833 0.4167-0.5000 (  4406 PWs)   bands (ev):

   -10.9294 -10.7955   1.2131   1.2150   1.7082   2.1982   2.6028   2.6043
     3.7716   3.8290   3.8390   4.0192   4.0590   4.0635   4.1838   4.2255
     4.2471   4.3192   4.4926   4.5583   4.5592   4.6353   5.4358   5.4725
     5.9310   5.9732   6.5811   6.7327   9.3698   9.9002  11.1266  11.1902
    13.7044  13.7120

          k = 0.0833-0.5000-0.5000 (  4412 PWs)   bands (ev):

   -10.9314 -10.7928   1.2056   1.2056   1.6978   2.2054   2.6240   2.6240
     3.7704   3.8352   3.8352   4.0199   4.0740   4.0740   4.1732   4.2608
     4.2678   4.2678   4.4743   4.5431   4.5522   4.6298   5.4624   5.4624
     5.9769   5.9769   6.5548   6.7168   9.3223   9.9192  11.1118  11.1118
    13.7233  13.7233

          k = 0.1667 0.1667 0.1667 (  4392 PWs)   bands (ev):

   -11.0676 -10.6606   1.0325   1.0325   1.4203   2.4730   2.9932   2.9932
     3.3611   3.5367   3.5367   3.9750   4.0181   4.0181   4.3511   4.3511
     4.5012   4.5012   4.5972   4.7329   4.7329   4.8067   5.0820   5.2090
     5.2090   6.7049   6.7049   7.1578   8.2949  10.5095  10.5095  12.7047
    14.0399  14.0399

          k = 0.1667 0.1667 0.2500 (  4401 PWs)   bands (ev):

   -11.0351 -10.6940   1.0632   1.1074   1.5998   2.2424   2.8301   2.9147
     3.4575   3.5580   3.6079   3.9850   4.0463   4.0894   4.3012   4.3715
     4.4087   4.4288   4.5438   4.7071   4.7093   4.7855   5.0928   5.3489
     5.3737   6.3656   6.7813   7.0548   8.5775  10.5971  10.6799  12.5046
    13.3951  13.9053

          k = 0.1667 0.1667 0.3333 (  4397 PWs)   bands (ev):

   -10.9945 -10.7354   1.1316   1.1940   1.7929   2.0306   2.6580   2.7707
     3.5632   3.6321   3.6891   3.9820   4.1075   4.1403   4.2393   4.2556
     4.3644   4.4360   4.4834   4.6771   4.6855   4.7562   5.0746   5.5036
     5.5723   6.0515   6.8371   6.9322   8.9146  10.4237  10.9184  12.6275
    12.8051  13.7252

          k = 0.1667 0.1667 0.4167 (  4387 PWs)   bands (ev):

   -10.9533 -10.7771   1.2212   1.2685   1.7876   2.0640   2.5256   2.5855
     3.6382   3.7361   3.7821   3.9803   4.0949   4.1197   4.1863   4.2037
     4.3343   4.4230   4.5100   4.6538   4.6561   4.7319   5.0888   5.5771
     5.6197   5.9584   6.8122   6.8655   9.2783  10.0906  11.2023  12.3104
    12.9205  13.5061

          k = 0.1667 0.1667-0.5000 (  4374 PWs)   bands (ev):

   -10.9322 -10.7985   1.2735   1.2991   1.7100   2.1996   2.4510   2.4748
     3.6629   3.8123   3.8388   3.9804   4.0010   4.0779   4.2059   4.2155
     4.3301   4.3951   4.5593   4.6198   4.6505   4.7239   5.1135   5.4886
     5.6627   6.0045   6.7549   6.8732   9.5674   9.8020  11.3882  12.0547
    13.1833  13.2859

          k = 0.1667 0.2500 0.2500 (  4402 PWs)   bands (ev):

   -11.0137 -10.7145   1.0830   1.1446   1.7793   2.0432   2.7620   2.8717
     3.5168   3.5842   3.6296   4.0508   4.0765   4.1251   4.2740   4.3407
     4.3414   4.3737   4.4856   4.6847   4.7164   4.7717   5.2024   5.3337
     5.4586   6.3360   6.6819   6.9489   8.8216  10.6435  10.7886  12.2408
    12.9958  13.6055

          k = 0.1667 0.2500 0.3333 (  4394 PWs)   bands (ev):

   -10.9889 -10.7386   1.1220   1.2021   1.8286   2.0031   2.6552   2.7932
     3.5847   3.6348   3.6891   4.0705   4.1215   4.1541   4.2093   4.2402
     4.2820   4.4283   4.4350   4.6618   4.7060   4.7423   5.1892   5.4233
     5.6096   6.1514   6.7194   6.8379   9.1044  10.4714  10.9054  12.2646
    12.5747  13.4401

          k = 0.1667 0.2500 0.4167 (  4394 PWs)   bands (ev):

   -10.9672 -10.7598   1.1836   1.2454   1.6805   2.1957   2.5703   2.6689
     3.6380   3.7093   3.7569   4.0565   4.0936   4.1151   4.1561   4.2538
     4.2541   4.3783   4.5115   4.6531   4.6856   4.7079   5.1724   5.4954
     5.7049   6.0400   6.6825   6.8127   9.3947  10.1732  11.0494  12.0420
    12.6811  13.2562

          k = 0.1667 0.2500-0.5000 (  4390 PWs)   bands (ev):

   -10.9580 -10.7688   1.2298   1.2509   1.6149   2.3127   2.5474   2.5669
     3.6582   3.7595   3.7895   4.0199   4.0473   4.0952   4.1661   4.2569
     4.2635   4.3549   4.5583   4.6399   4.6847   4.6854   5.1720   5.5145
     5.7039   6.0484   6.6300   6.8283   9.5832   9.9721  11.1344  11.8830
    12.8853  13.0914

          k = 0.1667 0.3333 0.3333 (  4402 PWs)   bands (ev):

   -10.9832 -10.7419   1.1273   1.2220   1.6889   2.1758   2.6226   2.7891
     3.6198   3.6531   3.7175   4.0899   4.1098   4.1595   4.1989   4.2253
     4.2347   4.3783   4.4681   4.6319   4.7102   4.7167   5.2600   5.3701
     5.7249   6.1589   6.6335   6.7728   9.2975  10.3582  10.9326  11.9158
    12.5580  13.3055

          k = 0.1667 0.3333 0.4167 (  4399 PWs)   bands (ev):

   -10.9790 -10.7445   1.1572   1.2261   1.5810   2.3338   2.6060   2.7346
     3.6511   3.6951   3.7521   4.0406   4.0828   4.1211   4.1753   4.2272
     4.2824   4.3401   4.5220   4.6181   4.6789   4.7024   5.2492   5.3891
     5.8522   6.1086   6.5549   6.7723   9.4443  10.2054  10.9790  11.6191
    12.7457  13.1781

          k = 0.1667 0.3333-0.5000 (  4388 PWs)   bands (ev):

   -10.9774 -10.7455   1.1939   1.2052   1.5407   2.4027   2.6450   2.6555
     3.6638   3.7286   3.7598   4.0299   4.0351   4.1223   4.1617   4.2516
     4.2645   4.3429   4.5533   4.6249   4.6474   4.6970   5.2386   5.4024
     5.9041   6.0921   6.5086   6.7852   9.4995  10.1427  11.0031  11.5005
    12.9259  13.0428

          k = 0.1667 0.4167 0.4167 (  4395 PWs)   bands (ev):

   -10.9867 -10.7342   1.1543   1.2004   1.5153   2.4299   2.6572   2.7515
     3.6533   3.7142   3.7574   4.0241   4.0671   4.1074   4.1307   4.2409
     4.3326   4.3341   4.5352   4.5814   4.6563   4.6960   5.2908   5.3279
     5.9950   6.1361   6.4571   6.7547   9.3985  10.2584  10.9869  11.2815
    12.9017  13.1380

          k = 0.1667 0.4167-0.5000 (  4420 PWs)   bands (ev):

   -10.9894 -10.7306   1.1707   1.1738   1.4929   2.4608   2.7164   2.7193
     3.6519   3.7386   3.7505   4.0352   4.0397   4.1035   4.1182   4.2240
     4.3370   4.3652   4.5423   4.5706   4.6388   4.6916   5.2851   5.3271
     6.0715   6.1291   6.4135   6.7531   9.3604  10.3026  10.9892  11.1540
    13.0357  13.0652

          k = 0.1667-0.5000-0.5000 (  4436 PWs)   bands (ev):

   -10.9935 -10.7255   1.1627   1.1627   1.4763   2.4809   2.7426   2.7426
     3.6439   3.7496   3.7496   4.0473   4.0473   4.0843   4.1001   4.2009
     4.3779   4.3779   4.5359   4.5477   4.6280   4.6876   5.3016   5.3016
     6.1443   6.1443   6.3711   6.7409   9.2940  10.3888  10.9988  10.9988
    13.0851  13.0851

          k = 0.2500 0.2500 0.2500 (  4401 PWs)   bands (ev):

   -11.0076 -10.7185   1.1210   1.1210   1.8459   1.9758   2.8158   2.8158
     3.5342   3.6059   3.6059   4.1209   4.1209   4.1530   4.2813   4.2813
     4.3239   4.3239   4.4046   4.7118   4.7118   4.7815   5.3128   5.3128
     5.4103   6.5081   6.5081   6.8190   9.0449  10.8068  10.8068  11.8132
    12.9827  12.9828

          k = 0.2500 0.2500 0.3333 (  4398 PWs)   bands (ev):

   -11.0013 -10.7226   1.1285   1.1610   1.6759   2.1725   2.7531   2.8080
     3.5667   3.6235   3.6449   4.1037   4.1280   4.1874   4.2202   4.2260
     4.3008   4.3469   4.4196   4.7057   4.7106   4.7622   5.2237   5.3373
     5.5987   6.3206   6.6622   6.6838   9.2947  10.6588  10.8310  11.8259
    12.4914  12.9375

          k = 0.2500 0.2500 0.4167 (  4401 PWs)   bands (ev):

   -10.9966 -10.7258   1.1608   1.1918   1.5374   2.3653   2.7041   2.7384
     3.6015   3.6625   3.6909   4.0584   4.0897   4.1456   4.1649   4.2444
     4.3016   4.3354   4.5095   4.6938   4.7144   4.7311   5.1507   5.3722
     5.7792   6.1832   6.5522   6.7688   9.5345  10.3583  10.8555  12.0733
    12.1713  12.8462

          k = 0.2500 0.2500-0.5000 (  4404 PWs)   bands (ev):

   -10.9948 -10.7270   1.1843   1.2034   1.4774   2.4801   2.6660   2.6856
     3.6182   3.6851   3.7130   4.0326   4.0501   4.1402   4.1537   4.2532
     4.2802   4.3478   4.5542   4.6772   4.7165   4.7258   5.1230   5.3873
     5.8554   6.1411   6.4846   6.8070   9.6678  10.1931  10.8669  12.0586
    12.2185  12.7748

          k = 0.2500 0.3333 0.3333 (  4409 PWs)   bands (ev):

   -11.0124 -10.7080   1.1221   1.1583   1.5283   2.3639   2.7799   2.8428
     3.5717   3.6151   3.6407   4.0842   4.1013   4.1529   4.1580   4.2797
     4.3304   4.3465   4.4528   4.6986   4.7268   4.7542   5.2276   5.2297
     5.7343   6.3785   6.5372   6.6668   9.4828  10.5933  10.8260  11.6210
    12.3429  12.7468

          k = 0.2500 0.3333 0.4167 (  4408 PWs)   bands (ev):

   -11.0199 -10.6979   1.1300   1.1618   1.4176   2.5361   2.7831   2.8364
     3.5862   3.6247   3.6570   4.0470   4.0741   4.1115   4.1292   4.2340
     4.3520   4.3964   4.5163   4.6927   4.7241   4.7377   5.1401   5.2381
     5.9192   6.3038   6.4177   6.7454   9.6118  10.4464  10.7700  11.6026
    12.2922  12.6839

          k = 0.2500 0.3333-0.5000 (  4412 PWs)   bands (ev):

   -11.0226 -10.6943   1.1452   1.1568   1.3734   2.6241   2.7879   2.8025
     3.5936   3.6363   3.6652   4.0304   4.0511   4.0963   4.1277   4.2140
     4.3589   4.4080   4.5485   4.6965   4.7023   4.7443   5.1059   5.2437
     6.0364   6.2362   6.3582   6.7840   9.6527  10.3978  10.7214  11.6032
    12.3339  12.6395

          k = 0.2500 0.4167 0.4167 (  4411 PWs)   bands (ev):

   -11.0347 -10.6797   1.1149   1.1399   1.3376   2.6724   2.8401   2.8905
     3.5647   3.6289   3.6515   4.0323   4.0592   4.0622   4.1241   4.1818
     4.4213   4.4360   4.5294   4.6641   4.7176   4.7422   5.1411   5.1446
     6.0660   6.3252   6.3477   6.7517   9.5668  10.5065  10.7961  11.2699
    12.4382  12.6416

          k = 0.2500 0.4167-0.5000 (  4416 PWs)   bands (ev):

   -11.0398 -10.6734   1.1195   1.1230   1.3094   2.7271   2.8797   2.8853
     3.5545   3.6429   3.6513   4.0223   4.0375   4.0607   4.1231   4.1593
     4.4395   4.4508   4.5378   4.6518   4.7092   4.7452   5.1093   5.1460
     6.1365   6.3144   6.3199   6.7642   9.5217  10.5969  10.7441  11.1704
    12.5307  12.6103

          k = 0.2500-0.5000-0.5000 (  4428 PWs)   bands (ev):

   -11.0456 -10.6662   1.1105   1.1105   1.2879   2.7658   2.9140   2.9140
     3.5373   3.6533   3.6533   4.0056   4.0446   4.0446   4.1253   4.1342
     4.4684   4.4684   4.5308   4.6290   4.7062   4.7454   5.1131   5.1131
     6.1385   6.3459   6.3459   6.7554   9.4490  10.7784  10.7784  10.9067
    12.6136  12.6136

          k = 0.3333 0.3333 0.3333 (  4410 PWs)   bands (ev):

   -11.0362 -10.6794   1.1167   1.1167   1.3884   2.5619   2.8999   2.8999
     3.5553   3.5867   3.5867   4.0723   4.0723   4.1218   4.1218   4.2151
     4.4286   4.4439   4.4439   4.7332   4.7332   4.7662   5.1297   5.1297
     5.8489   6.4124   6.5788   6.5788   9.6688  10.6719  10.6719  11.4253
    12.3722  12.3722

          k = 0.3333 0.3333 0.4167 (  4409 PWs)   bands (ev):

   -11.0514 -10.6607   1.1019   1.1125   1.2868   2.7358   2.9439   2.9496
     3.5563   3.5587   3.5870   4.0439   4.0659   4.0672   4.1040   4.1707
     4.4472   4.4737   4.5176   4.7386   4.7512   4.7514   5.0326   5.0886
     5.9869   6.3367   6.4798   6.7251   9.7827  10.5232  10.5700  11.5194
    12.1754  12.4225

          k = 0.3333 0.3333-0.5000 (  4418 PWs)   bands (ev):

   -11.0566 -10.6542   1.1024   1.1108   1.2463   2.8245   2.9401   2.9604
     3.5467   3.5661   3.5940   4.0326   4.0355   4.0632   4.1024   4.1520
     4.4590   4.4708   4.5460   4.7326   4.7426   4.7713   4.9901   5.0808
     6.0453   6.3657   6.3834   6.7796   9.8110  10.4608  10.5217  11.5982
    12.1165  12.4379

          k = 0.3333 0.4167 0.4167 (  4428 PWs)   bands (ev):

   -11.0711 -10.6368   1.0786   1.0874   1.1999   2.9019   3.0375   3.0478
     3.5051   3.5591   3.5594   4.0140   4.0447   4.0490   4.0898   4.1230
     4.4954   4.5156   4.5295   4.7291   4.7596   4.7704   4.9749   4.9813
     5.9758   6.3927   6.5545   6.7416   9.8161  10.4365  10.5336  11.4774
    12.2311  12.3501

          k = 0.3333 0.4167-0.5000 (  4412 PWs)   bands (ev):

   -11.0778 -10.6286   1.0737   1.0769   1.1687   2.9805   3.0613   3.0784
     3.4847   3.5633   3.5653   3.9810   4.0388   4.0493   4.0874   4.1033
     4.5113   4.5155   4.5392   4.7158   4.7632   4.7825   4.9363   4.9672
     5.9553   6.4925   6.5024   6.7722   9.7838  10.4325  10.5101  11.4789
    12.2542  12.3644

          k = 0.3333-0.5000-0.5000 (  4428 PWs)   bands (ev):

   -11.0850 -10.6198   1.0637   1.0637   1.1434   3.0517   3.1089   3.1089
     3.4585   3.5698   3.5698   3.9448   4.0450   4.0450   4.0803   4.0830
     4.5271   4.5271   4.5324   4.6957   4.7680   4.7896   4.9283   4.9283
     5.9167   6.5509   6.5509   6.7666   9.7210  10.4810  10.4810  11.4382
    12.3507  12.3507

          k = 0.4167 0.4167 0.4167 (  4395 PWs)   bands (ev):

   -11.0937 -10.6094   1.0537   1.0537   1.1119   3.0879   3.1909   3.1909
     3.4810   3.4810   3.5279   3.9995   3.9995   4.0485   4.0485   4.0819
     4.5335   4.5335   4.5498   4.7570   4.7826   4.7826   4.8667   4.8667
     5.8587   6.5377   6.7145   6.7145   9.9973  10.2995  10.2995  11.7343
    12.2155  12.2155

          k = 0.4167 0.4167-0.5000 (  4402 PWs)   bands (ev):

   -11.1014 -10.6000   1.0429   1.0449   1.0808   3.1820   3.2183   3.2627
     3.4367   3.5059   3.5151   3.9484   4.0009   4.0381   4.0495   4.0643
     4.5389   4.5397   4.5464   4.7480   4.7928   4.8014   4.8164   4.8448
     5.8141   6.6505   6.6523   6.7763  10.0034  10.2058  10.3093  11.8274
    12.1779  12.2608

          k = 0.4167-0.5000-0.5000 (  4376 PWs)   bands (ev):

   -11.1094 -10.5901   1.0322   1.0322   1.0523   3.2893   3.2893   3.3128
     3.4109   3.5027   3.5027   3.9069   3.9774   4.0400   4.0400   4.0462
     4.5359   4.5444   4.5444   4.7390   4.7956   4.7956   4.8077   4.8140
     5.7642   6.7139   6.7139   6.7747   9.9962  10.2217  10.2217  11.9354
    12.2348  12.2348

          k =-0.5000-0.5000-0.5000 (  4416 PWs)   bands (ev):

   -11.1177 -10.5799   1.0210   1.0210   1.0210   3.3947   3.3947   3.3947
     3.4490   3.4490   3.4490   3.8937   3.8937   4.0342   4.0342   4.0342
     4.5374   4.5374   4.5374   4.7536   4.7536   4.7536   4.8210   4.8210
     5.7110   6.7776   6.7776   6.7776  10.1189  10.1189  10.1189  12.2032
    12.2032  12.2032

     the Fermi energy is     7.4288 ev

!    total energy              =   -1504.28670773 Ry
     total all-electron energy =    -42829.844703 Ry
     estimated scf accuracy    <          4.0E-09 Ry
     smearing contrib. (-TS)   =       0.00046190 Ry
     internal energy E=F+TS    =   -1504.28716963 Ry

     The total energy is F=E-TS. E is the sum of the following terms:
     one-electron contribution =     -74.48801984 Ry
     hartree contribution      =     100.78693752 Ry
     xc contribution           =    -104.00403060 Ry
     ewald contribution        =    -298.11155536 Ry
     one-center paw contrib.   =   -1128.47050135 Ry

     convergence has been achieved in  10 iterations

     Writing all to output data dir ./tmp_dos/ag2o.save/ :
     XML data file, charge density, pseudopotentials, collected wavefunctions

     init_run     :      5.18s CPU      5.36s WALL (       1 calls)
     electrons    :    121.23s CPU    124.55s WALL (       1 calls)

     Called by init_run:
     wfcinit      :      4.36s CPU      4.39s WALL (       1 calls)
     potinit      :      0.45s CPU      0.49s WALL (       1 calls)
     hinit0       :      0.25s CPU      0.25s WALL (       1 calls)

     Called by electrons:
     c_bands      :    105.79s CPU    107.52s WALL (      10 calls)
     sum_band     :     11.36s CPU     12.50s WALL (      10 calls)
     v_of_rho     :      0.25s CPU      0.26s WALL (      11 calls)
     newd         :      1.15s CPU      1.69s WALL (      11 calls)
     PAW_pot      :      3.05s CPU      3.08s WALL (      11 calls)
     mix_rho      :      0.02s CPU      0.02s WALL (      10 calls)

     Called by c_bands:
     init_us_2    :      0.75s CPU      0.75s WALL (    1764 calls)
     cegterg      :    103.70s CPU    105.41s WALL (     840 calls)

     Called by *egterg:
     cdiaghg      :      3.12s CPU      3.15s WALL (    3927 calls)
     h_psi        :     54.79s CPU     56.36s WALL (    4011 calls)
     s_psi        :     11.99s CPU     12.02s WALL (    4011 calls)
     g_psi        :      0.24s CPU      0.24s WALL (    3087 calls)

     Called by h_psi:
     h_psi:calbec :     12.23s CPU     12.52s WALL (    4011 calls)
     vloc_psi     :     30.39s CPU     31.62s WALL (    4011 calls)
                                        0.00s GPU  (    4011 calls)
     add_vuspsi   :     11.97s CPU     12.01s WALL (    4011 calls)

     General routines
     calbec       :     16.53s CPU     16.86s WALL (    4851 calls)
     fft          :      0.22s CPU      0.23s WALL (     141 calls)
     ffts         :      0.11s CPU      0.11s WALL (      21 calls)
     fftw         :     31.80s CPU     33.01s WALL (  187220 calls)
     interpolate  :      0.12s CPU      0.12s WALL (      11 calls)

     Parallel routines

     PWSCF        :   2m 6.53s CPU   2m10.11s WALL


   This run was terminated on:  21: 3:23   8Sep2026            

=------------------------------------------------------------------------------=
   JOB DONE.
=------------------------------------------------------------------------------=
