
     Program PWSCF v.7.5 starts on  6Sep2026 at 17:26: 1 

     This program is part of the open-source Quantum ESPRESSO suite
     for quantum simulation of materials; please cite
         "P. Giannozzi et al., J. Phys.:Condens. Matter 21 395502 (2009);
         "P. Giannozzi et al., J. Phys.:Condens. Matter 29 465901 (2017);
         "P. Giannozzi et al., J. Chem. Phys. 152 154105 (2020);
          URL http://www.quantum-espresso.org", 
     in publications or presentations arising from this work. More details at
     http://www.quantum-espresso.org/quote

     Parallel version (MPI & OpenMP), running on      96 processor cores
     Number of MPI processes:                 4
     Threads/MPI process:                    24

     MPI processes distributed on     1 nodes
     13295 MiB available memory on the printing compute node when the environment starts

     Waiting for input...
     Reading input from standard input
Warning: card &CELL ignored

     Current dimensions of program PWSCF are:
     Max number of different atomic species (ntypx) = 10
     Max number of k-points (npk) =  40000
     Max angular momentum in pseudopotentials (lmaxx) =  4
     file Sc.pbe-spn-kjpaw_psl.1.0.0.UPF: wavefunction(s)  3S 3P 3D renormalized
     file Al.pbe-n-kjpaw_psl.1.0.0.UPF: wavefunction(s)  3S 3P renormalized
     Message from routine setup:
     using ibrav=0 with symmetry is DISCOURAGED, use correct ibrav instead

     R & G space division:  proc/nbgrp/npool/nimage =       4
     Subspace diagonalization in iterative solution of the eigenvalue problem:
     a serial algorithm will be used


     Parallelization info
     --------------------
     sticks:   dense  smooth     PW     G-vecs:    dense   smooth      PW
     Min         294     147     45                 7463     2658     465
     Max         295     149     47                 7464     2659     467
     Sum        1177     593    185                29855    10635    1863

     Using Slab Decomposition



     bravais-lattice index     =            0
     lattice parameter (alat)  =       6.0471  a.u.
     unit-cell volume          =     221.1294 (a.u.)^3
     number of atoms/cell      =            2
     number of atomic types    =            2
     number of electrons       =        14.00
     number of Kohn-Sham states=           11
     kinetic-energy cutoff     =      50.0000  Ry
     charge density cutoff     =     400.0000  Ry
     scf convergence threshold =      1.0E-08
     mixing beta               =       0.7000
     number of iterations used =            8  plain     mixing
     Exchange-correlation= SLA  PW   PBX  PBC
                           (   1   4   3   4   0   0   0)

     celldm(1)=   6.047124  celldm(2)=   0.000000  celldm(3)=   0.000000
     celldm(4)=   0.000000  celldm(5)=   0.000000  celldm(6)=   0.000000

     crystal axes: (cart. coord. in units of alat)
               a(1) = (   1.000000   0.000000   0.000000 )  
               a(2) = (   0.000000   1.000000   0.000000 )  
               a(3) = (   0.000000   0.000000   1.000000 )  

     reciprocal axes: (cart. coord. in units 2 pi/alat)
               b(1) = (  1.000000  0.000000  0.000000 )  
               b(2) = (  0.000000  1.000000  0.000000 )  
               b(3) = (  0.000000  0.000000  1.000000 )  


     PseudoPot. # 1 for Sc read from file:
     /home/jdmin2003/qe-work/pseudo/Sc.pbe-spn-kjpaw_psl.1.0.0.UPF
     MD5 check sum: d5ac433e587a0148d610ca85a1be5559
     Pseudo is Projector augmented-wave + core cor, Zval = 11.0
     Generated using &quot;atomic&quot; code by A. Dal Corso  v.6.2.2
     Shape of augmentation charge: PSQ
     Using radial grid of 1173 points,  6 beta functions with: 
                l(1) =   0
                l(2) =   0
                l(3) =   1
                l(4) =   1
                l(5) =   2
                l(6) =   2
     Q(r) pseudized with 0 coefficients 


     PseudoPot. # 2 for Al read from file:
     /home/jdmin2003/qe-work/pseudo/Al.pbe-n-kjpaw_psl.1.0.0.UPF
     MD5 check sum: 502b6b27b9c6270cab5dd1084b96fa6d
     Pseudo is Projector augmented-wave + core cor, Zval =  3.0
     Generated using &quot;atomic&quot; code by A. Dal Corso  v.6.3
     Shape of augmentation charge: PSQ
     Using radial grid of 1135 points,  6 beta functions with: 
                l(1) =   0
                l(2) =   0
                l(3) =   1
                l(4) =   1
                l(5) =   2
                l(6) =   2
     Q(r) pseudized with 0 coefficients 


     atomic species   valence    mass     pseudopotential
     Sc               11.00    44.95600     Sc( 1.00)
     Al                3.00    26.98200     Al( 1.00)

     48 Sym. Ops., with inversion, found



   Cartesian axes

     site n.     atom                  positions (alat units)
         1        Sc     tau(   1) = (   0.0000000   0.0000000   0.0000000  )
         2        Al     tau(   2) = (   0.5000000   0.5000000   0.5000000  )

     number of k points=    56  Marzari-Vanderbilt smearing, width (Ry)=  0.0200
                       cart. coord. in units 2pi/alat
        k(    1) = (   0.0000000   0.0000000   0.0000000), wk =   0.0020000
        k(    2) = (   0.0000000   0.0000000   0.1000000), wk =   0.0120000
        k(    3) = (   0.0000000   0.0000000   0.2000000), wk =   0.0120000
        k(    4) = (   0.0000000   0.0000000   0.3000000), wk =   0.0120000
        k(    5) = (   0.0000000   0.0000000   0.4000000), wk =   0.0120000
        k(    6) = (   0.0000000   0.0000000  -0.5000000), wk =   0.0060000
        k(    7) = (   0.0000000   0.1000000   0.1000000), wk =   0.0240000
        k(    8) = (   0.0000000   0.1000000   0.2000000), wk =   0.0480000
        k(    9) = (   0.0000000   0.1000000   0.3000000), wk =   0.0480000
        k(   10) = (   0.0000000   0.1000000   0.4000000), wk =   0.0480000
        k(   11) = (   0.0000000   0.1000000  -0.5000000), wk =   0.0240000
        k(   12) = (   0.0000000   0.2000000   0.2000000), wk =   0.0240000
        k(   13) = (   0.0000000   0.2000000   0.3000000), wk =   0.0480000
        k(   14) = (   0.0000000   0.2000000   0.4000000), wk =   0.0480000
        k(   15) = (   0.0000000   0.2000000  -0.5000000), wk =   0.0240000
        k(   16) = (   0.0000000   0.3000000   0.3000000), wk =   0.0240000
        k(   17) = (   0.0000000   0.3000000   0.4000000), wk =   0.0480000
        k(   18) = (   0.0000000   0.3000000  -0.5000000), wk =   0.0240000
        k(   19) = (   0.0000000   0.4000000   0.4000000), wk =   0.0240000
        k(   20) = (   0.0000000   0.4000000  -0.5000000), wk =   0.0240000
        k(   21) = (   0.0000000  -0.5000000  -0.5000000), wk =   0.0060000
        k(   22) = (   0.1000000   0.1000000   0.1000000), wk =   0.0160000
        k(   23) = (   0.1000000   0.1000000   0.2000000), wk =   0.0480000
        k(   24) = (   0.1000000   0.1000000   0.3000000), wk =   0.0480000
        k(   25) = (   0.1000000   0.1000000   0.4000000), wk =   0.0480000
        k(   26) = (   0.1000000   0.1000000  -0.5000000), wk =   0.0240000
        k(   27) = (   0.1000000   0.2000000   0.2000000), wk =   0.0480000
        k(   28) = (   0.1000000   0.2000000   0.3000000), wk =   0.0960000
        k(   29) = (   0.1000000   0.2000000   0.4000000), wk =   0.0960000
        k(   30) = (   0.1000000   0.2000000  -0.5000000), wk =   0.0480000
        k(   31) = (   0.1000000   0.3000000   0.3000000), wk =   0.0480000
        k(   32) = (   0.1000000   0.3000000   0.4000000), wk =   0.0960000
        k(   33) = (   0.1000000   0.3000000  -0.5000000), wk =   0.0480000
        k(   34) = (   0.1000000   0.4000000   0.4000000), wk =   0.0480000
        k(   35) = (   0.1000000   0.4000000  -0.5000000), wk =   0.0480000
        k(   36) = (   0.1000000  -0.5000000  -0.5000000), wk =   0.0120000
        k(   37) = (   0.2000000   0.2000000   0.2000000), wk =   0.0160000
        k(   38) = (   0.2000000   0.2000000   0.3000000), wk =   0.0480000
        k(   39) = (   0.2000000   0.2000000   0.4000000), wk =   0.0480000
        k(   40) = (   0.2000000   0.2000000  -0.5000000), wk =   0.0240000
        k(   41) = (   0.2000000   0.3000000   0.3000000), wk =   0.0480000
        k(   42) = (   0.2000000   0.3000000   0.4000000), wk =   0.0960000
        k(   43) = (   0.2000000   0.3000000  -0.5000000), wk =   0.0480000
        k(   44) = (   0.2000000   0.4000000   0.4000000), wk =   0.0480000
        k(   45) = (   0.2000000   0.4000000  -0.5000000), wk =   0.0480000
        k(   46) = (   0.2000000  -0.5000000  -0.5000000), wk =   0.0120000
        k(   47) = (   0.3000000   0.3000000   0.3000000), wk =   0.0160000
        k(   48) = (   0.3000000   0.3000000   0.4000000), wk =   0.0480000
        k(   49) = (   0.3000000   0.3000000  -0.5000000), wk =   0.0240000
        k(   50) = (   0.3000000   0.4000000   0.4000000), wk =   0.0480000
        k(   51) = (   0.3000000   0.4000000  -0.5000000), wk =   0.0480000
        k(   52) = (   0.3000000  -0.5000000  -0.5000000), wk =   0.0120000
        k(   53) = (   0.4000000   0.4000000   0.4000000), wk =   0.0160000
        k(   54) = (   0.4000000   0.4000000  -0.5000000), wk =   0.0240000
        k(   55) = (   0.4000000  -0.5000000  -0.5000000), wk =   0.0120000
        k(   56) = (  -0.5000000  -0.5000000  -0.5000000), wk =   0.0020000

     Dense  grid:    29855 G-vectors     FFT dimensions: (  40,  40,  40)

     Smooth grid:    10635 G-vectors     FFT dimensions: (  27,  27,  27)

     Estimated max dynamical RAM per process >      33.83 MB

     Estimated total dynamical RAM >     135.34 MB

     Check: negative core charge=   -0.000007

     Initial potential from superposition of free atoms

     starting charge      13.9951, renormalised to      14.0000
     Starting wfcs are   14 randomized atomic wfcs
     Checking if some PAW data can be deallocated... 

     total cpu time spent up to now is      139.8 secs

     per-process dynamical memory:    43.0 Mb

     Self-consistent Calculation

     iteration #  1     ecut=    50.00 Ry     beta= 0.70
     Davidson diagonalization with overlap
     ethr =  1.00E-02,  avg # of iterations =  2.6

     Threshold (ethr) on eigenvalues was too large:
     Diagonalizing with lowered threshold

     Davidson diagonalization with overlap
     c_bands:  1 eigenvalues not converged
     ethr =  3.22E-05,  avg # of iterations =  9.7

     total cpu time spent up to now is      886.9 secs

     total energy              =    -196.50257061 Ry
     estimated scf accuracy    <       0.01482134 Ry

     iteration #  2     ecut=    50.00 Ry     beta= 0.70
     Davidson diagonalization with overlap
     ethr =  1.06E-04,  avg # of iterations =  2.8

     total cpu time spent up to now is     1116.7 secs

     total energy              =    -196.50415189 Ry
     estimated scf accuracy    <       0.00166318 Ry

     iteration #  3     ecut=    50.00 Ry     beta= 0.70
     Davidson diagonalization with overlap
     ethr =  1.19E-05,  avg # of iterations =  4.4

     total cpu time spent up to now is     1409.6 secs

     total energy              =    -196.50478670 Ry
     estimated scf accuracy    <       0.00006050 Ry

     iteration #  4     ecut=    50.00 Ry     beta= 0.70
     Davidson diagonalization with overlap
     c_bands:  1 eigenvalues not converged
     ethr =  4.32E-07,  avg # of iterations =  7.2

     total cpu time spent up to now is     1787.8 secs

     total energy              =    -196.50485416 Ry
     estimated scf accuracy    <       0.00000405 Ry

     iteration #  5     ecut=    50.00 Ry     beta= 0.70
     Davidson diagonalization with overlap
     ethr =  2.89E-08,  avg # of iterations =  4.7

     total cpu time spent up to now is     2079.7 secs

     total energy              =    -196.50485631 Ry
     estimated scf accuracy    <       0.00000063 Ry

     iteration #  6     ecut=    50.00 Ry     beta= 0.70
     Davidson diagonalization with overlap
     ethr =  4.47E-09,  avg # of iterations =  4.4

     total cpu time spent up to now is     2369.4 secs

     total energy              =    -196.50485654 Ry
     estimated scf accuracy    <       0.00000006 Ry

     iteration #  7     ecut=    50.00 Ry     beta= 0.70
     Davidson diagonalization with overlap
     ethr =  4.45E-10,  avg # of iterations =  4.8

     total cpu time spent up to now is     2670.0 secs

     End of self-consistent calculation

          k = 0.0000 0.0000 0.0000 (  1357 PWs)   bands (ev):

   -37.5428 -16.1115 -16.1115 -16.1115   2.4364  10.5441  10.5441  14.6813
    14.6814  14.6814  15.9440

          k = 0.0000 0.0000 0.1000 (  1341 PWs)   bands (ev):

   -37.5400 -16.1422 -16.1087 -16.1087   2.6007  10.4198  10.6313  14.1904
    14.1905  14.7083  15.5525

          k = 0.0000 0.0000 0.2000 (  1310 PWs)   bands (ev):

   -37.5326 -16.2222 -16.1013 -16.1013   3.0813   9.8873  10.8767  13.4775
    13.4775  14.7801  15.1206

          k = 0.0000 0.0000 0.3000 (  1322 PWs)   bands (ev):

   -37.5234 -16.3198 -16.0925 -16.0925   3.8439   8.8394  11.2254  12.8969
    12.8969  14.8715  15.2860

          k = 0.0000 0.0000 0.4000 (  1326 PWs)   bands (ev):

   -37.5160 -16.3976 -16.0852 -16.0852   4.8289   7.5466  11.5606  12.5259
    12.5259  14.9479  15.7919

          k = 0.0000 0.0000-0.5000 (  1342 PWs)   bands (ev):

   -37.5132 -16.4270 -16.0826 -16.0826   5.6700   6.5822  11.7065  12.3986
    12.3986  14.9776  16.0680

          k = 0.0000 0.1000 0.1000 (  1323 PWs)   bands (ev):

   -37.5372 -16.1416 -16.1368 -16.1058   2.7622  10.4365  10.5920  13.7107
    14.0331  14.5242  15.8593

          k = 0.0000 0.1000 0.2000 (  1323 PWs)   bands (ev):

   -37.5298 -16.2189 -16.1313 -16.0987   3.2342   9.9763  10.7817  13.0777
    13.4860  14.5151  15.4513

          k = 0.0000 0.1000 0.3000 (  1320 PWs)   bands (ev):

   -37.5207 -16.3156 -16.1217 -16.0897   3.9817   8.9386  11.1278  12.6408
    12.9459  14.6119  15.4354

          k = 0.0000 0.1000 0.4000 (  1317 PWs)   bands (ev):

   -37.5133 -16.3927 -16.1139 -16.0825   4.9407   7.6662  11.5103  12.2831
    12.5875  14.7037  15.8170

          k = 0.0000 0.1000-0.5000 (  1318 PWs)   bands (ev):

   -37.5105 -16.4219 -16.1109 -16.0798   5.7270   6.7558  11.7662  12.0505
    12.4632  14.7405  16.0495

          k = 0.0000 0.2000 0.2000 (  1324 PWs)   bands (ev):

   -37.5226 -16.2157 -16.2031 -16.0915   3.6795  10.1835  10.3075  12.5998
    13.4034  14.1310  15.7230

          k = 0.0000 0.2000 0.3000 (  1313 PWs)   bands (ev):

   -37.5136 -16.3047 -16.1974 -16.0826   4.3783   9.2094  10.6049  12.3702
    13.0687  14.0839  15.6483

          k = 0.0000 0.2000 0.4000 (  1321 PWs)   bands (ev):

   -37.5063 -16.3802 -16.1884 -16.0755   5.2516   8.0133  11.0179  12.0893
    12.7572  14.1734  15.8321

          k = 0.0000 0.2000-0.5000 (  1318 PWs)   bands (ev):

   -37.5035 -16.4088 -16.1848 -16.0727   5.8874   7.2554  11.2811  11.8636
    12.6422  14.2185  15.9806

          k = 0.0000 0.3000 0.3000 (  1318 PWs)   bands (ev):

   -37.5047 -16.2967 -16.2843 -16.0738   4.9842   9.3650   9.9127  12.2505
    13.1420  13.6778  15.7050

          k = 0.0000 0.3000 0.4000 (  1325 PWs)   bands (ev):

   -37.4976 -16.3647 -16.2792 -16.0667   5.6910   8.5385  10.2214  11.9715
    12.9857  13.6517  15.7948

          k = 0.0000 0.3000-0.5000 (  1312 PWs)   bands (ev):

   -37.4948 -16.3925 -16.2750 -16.0639   6.1161   8.0219  10.4767  11.7495
    12.8884  13.6958  15.8776

          k = 0.0000 0.4000 0.4000 (  1310 PWs)   bands (ev):

   -37.4905 -16.3541 -16.3495 -16.0595   6.1312   8.9973   9.7157  11.5559
    13.1538  13.3345  15.8163

          k = 0.0000 0.4000-0.5000 (  1312 PWs)   bands (ev):

   -37.4878 -16.3793 -16.3470 -16.0568   6.3389   8.9527   9.8737  11.1953
    13.1141  13.3352  15.8619

          k = 0.0000-0.5000-0.5000 (  1308 PWs)   bands (ev):

   -37.4851 -16.3742 -16.3742 -16.0541   6.4380   9.6443   9.6443  10.5995
    13.2083  13.2083  15.8937

          k = 0.1000 0.1000 0.1000 (  1316 PWs)   bands (ev):

   -37.5344 -16.1409 -16.1339 -16.1339   2.9209  10.5142  10.5142  13.3937
    14.0387  14.0387  16.4126

          k = 0.1000 0.1000 0.2000 (  1320 PWs)   bands (ev):

   -37.5271 -16.2155 -16.1303 -16.1264   3.3844  10.0569  10.7341  12.9050
    13.3027  14.1527  15.8346

          k = 0.1000 0.1000 0.3000 (  1324 PWs)   bands (ev):

   -37.5180 -16.3115 -16.1206 -16.1170   4.1168   9.0369  11.0574  12.6651
    12.7058  14.3059  15.6377

          k = 0.1000 0.1000 0.4000 (  1318 PWs)   bands (ev):

   -37.5107 -16.3880 -16.1127 -16.1094   5.0504   7.7864  11.4211  12.1749
    12.6064  14.4229  15.8757

          k = 0.1000 0.1000-0.5000 (  1314 PWs)   bands (ev):

   -37.5078 -16.4170 -16.1097 -16.1065   5.7884   6.9236  11.7312  11.8398
    12.5607  14.4676  16.0600

          k = 0.1000 0.2000 0.2000 (  1320 PWs)   bands (ev):

   -37.5198 -16.2123 -16.1999 -16.1206   3.8214  10.2208  10.3764  12.5105
    13.1334  13.7421  16.1732

          k = 0.1000 0.2000 0.3000 (  1316 PWs)   bands (ev):

   -37.5109 -16.3007 -16.1942 -16.1112   4.5062   9.3032  10.5994  12.4281
    12.7588  13.7750  15.9297

          k = 0.1000 0.2000 0.4000 (  1317 PWs)   bands (ev):

   -37.5036 -16.3757 -16.1852 -16.1035   5.3570   8.1308  10.8985  12.1401
    12.7431  13.8710  15.9504

          k = 0.1000 0.2000-0.5000 (  1318 PWs)   bands (ev):

   -37.5008 -16.4041 -16.1817 -16.1006   5.9618   7.4030  11.0445  11.9757
    12.7614  13.9115  16.0442

          k = 0.1000 0.3000 0.3000 (  1329 PWs)   bands (ev):

   -37.5021 -16.2928 -16.2808 -16.1019   5.1010   9.4867   9.8774  12.3396
    12.8070  13.5150  15.9752

          k = 0.1000 0.3000 0.4000 (  1321 PWs)   bands (ev):

   -37.4949 -16.3605 -16.2755 -16.0943   5.7946   8.6388  10.1310  12.0380
    12.9604  13.4960  15.9409

          k = 0.1000 0.3000-0.5000 (  1314 PWs)   bands (ev):

   -37.4922 -16.3881 -16.2714 -16.0914   6.2100   8.1263  10.3053  11.8703
    13.0218  13.5050  15.9708

          k = 0.1000 0.4000 0.4000 (  1313 PWs)   bands (ev):

   -37.4878 -16.3500 -16.3455 -16.0868   6.2401   9.0602   9.6110  11.6140
    13.1811  13.4025  15.9024

          k = 0.1000 0.4000-0.5000 (  1322 PWs)   bands (ev):

   -37.4851 -16.3752 -16.3430 -16.0840   6.4541   8.9687   9.7336  11.3174
    13.2651  13.3930  15.9072

          k = 0.1000-0.5000-0.5000 (  1324 PWs)   bands (ev):

   -37.4825 -16.3702 -16.3702 -16.0811   6.5636   9.5113   9.5113  10.8448
    13.3699  13.3699  15.9020

          k = 0.2000 0.2000 0.2000 (  1307 PWs)   bands (ev):

   -37.5127 -16.2080 -16.1913 -16.1913   4.2334  10.3160  10.3160  12.0685
    13.1175  13.1175  16.9879

          k = 0.2000 0.2000 0.3000 (  1315 PWs)   bands (ev):

   -37.5038 -16.2903 -16.1900 -16.1809   4.8745   9.5304  10.4219  12.1919
    12.6206  13.3126  16.4147

          k = 0.2000 0.2000 0.4000 (  1307 PWs)   bands (ev):

   -37.4966 -16.3638 -16.1808 -16.1724   5.6550   8.4497  10.4891  12.3386
    12.6897  13.3970  16.1493

          k = 0.2000 0.2000-0.5000 (  1318 PWs)   bands (ev):

   -37.4939 -16.3918 -16.1773 -16.1692   6.1729   7.8116  10.5075  12.2546
    13.0198  13.3128  16.1201

          k = 0.2000 0.3000 0.3000 (  1319 PWs)   bands (ev):

   -37.4951 -16.2824 -16.2712 -16.1746   5.4371   9.7303   9.7743  12.1260
    12.6531  13.2403  16.5753

          k = 0.2000 0.3000 0.4000 (  1319 PWs)   bands (ev):

   -37.4880 -16.3493 -16.2660 -16.1660   6.0912   8.8646   9.8752  12.2324
    12.8425  13.3729  16.2443

          k = 0.2000 0.3000-0.5000 (  1322 PWs)   bands (ev):

   -37.4853 -16.3766 -16.2620 -16.1627   6.4788   8.3815   9.9033  12.2421
    13.1378  13.3283  16.1227

          k = 0.2000 0.4000 0.4000 (  1327 PWs)   bands (ev):

   -37.4810 -16.3393 -16.3352 -16.1576   6.5539   9.1376   9.3534  11.9042
    13.2772  13.5738  15.9394

          k = 0.2000 0.4000-0.5000 (  1326 PWs)   bands (ev):

   -37.4783 -16.3642 -16.3327 -16.1544   6.7881   8.9397   9.4055  11.7852
    13.5481  13.6280  15.6597

          k = 0.2000-0.5000-0.5000 (  1328 PWs)   bands (ev):

   -37.4756 -16.3595 -16.3595 -16.1512   6.9323   9.1992   9.1992  11.5549
    13.7775  13.7775  15.3439

          k = 0.3000 0.3000 0.3000 (  1319 PWs)   bands (ev):

   -37.4864 -16.2735 -16.2594 -16.2594   5.9482   9.6273   9.6273  11.9436
    13.0605  13.0605  16.2303

          k = 0.3000 0.3000 0.4000 (  1316 PWs)   bands (ev):

   -37.4794 -16.3354 -16.2578 -16.2497   6.5358   9.0342   9.4966  12.4046
    12.9916  13.4834  15.5027

          k = 0.3000 0.3000-0.5000 (  1320 PWs)   bands (ev):

   -37.4767 -16.3622 -16.2540 -16.2460   6.8760   8.6482   9.4444  12.7536
    12.9785  13.6581  15.2016

          k = 0.3000 0.4000 0.4000 (  1325 PWs)   bands (ev):

   -37.4725 -16.3260 -16.3222 -16.2440   7.0283   9.0603   9.0622  12.5631
    13.4467  13.7777  14.6200

          k = 0.3000 0.4000-0.5000 (  1332 PWs)   bands (ev):

   -37.4698 -16.3506 -16.3198 -16.2404   7.2958   8.8135   9.0475  12.6774
    13.7520  13.8222  14.4110

          k = 0.3000-0.5000-0.5000 (  1340 PWs)   bands (ev):

   -37.4672 -16.3462 -16.3462 -16.2368   7.5066   8.8632   8.8632  12.6474
    13.7236  14.2858  14.2862

          k = 0.4000 0.4000 0.4000 (  1337 PWs)   bands (ev):

   -37.4656 -16.3164 -16.3118 -16.3118   7.5577   8.8433   8.8433  13.0224
    13.8413  13.9399  13.9400

          k = 0.4000 0.4000-0.5000 (  1332 PWs)   bands (ev):

   -37.4629 -16.3395 -16.3107 -16.3077   7.8573   8.6761   8.7634  12.8585
    13.7783  14.0017  14.5868

          k = 0.4000-0.5000-0.5000 (  1344 PWs)   bands (ev):

   -37.4603 -16.3353 -16.3353 -16.3053   8.1684   8.6191   8.6191  12.3904
    13.9613  14.7374  15.9732

          k =-0.5000-0.5000-0.5000 (  1328 PWs)   bands (ev):

   -37.4577 -16.3311 -16.3311 -16.3311   8.5313   8.5313   8.5313  11.7986
    14.9301  14.9301  14.9301

     the Fermi energy is    11.4762 ev

!    total energy              =    -196.50485657 Ry
     total all-electron energy =     -2014.136420 Ry
     estimated scf accuracy    <          6.8E-09 Ry
     smearing contrib. (-TS)   =       0.00019560 Ry
     internal energy E=F+TS    =    -196.50505218 Ry

     The total energy is F=E-TS. E is the sum of the following terms:
     one-electron contribution =     -34.39976129 Ry
     hartree contribution      =      22.91388086 Ry
     xc contribution           =     -20.31579875 Ry
     ewald contribution        =     -69.74827610 Ry
     one-center paw contrib.   =     -94.95509690 Ry

     convergence has been achieved in   7 iterations

     Forces acting on atoms (cartesian axes, Ry/au):

     atom    1 type  1   force =     0.00000000    0.00000000    0.00000000
     atom    2 type  2   force =     0.00000000    0.00000000    0.00000000

     Total force =     0.000000     Total SCF correction =     0.000000


     Computing stress (Cartesian axis) and pressure

          total   stress  (Ry/bohr**3)                   (kbar)     P=      169.25
   0.00115056   0.00000000   0.00000000          169.25        0.00        0.00
   0.00000000   0.00115056   0.00000000            0.00      169.25        0.00
   0.00000000   0.00000000   0.00115056            0.00        0.00      169.25


     Writing all to output data dir ./tmp_3.200/scal_3.200.save/ :
     XML data file, charge density, pseudopotentials, collected wavefunctions

     init_run     :    802.67s CPU    139.71s WALL (       1 calls)
     electrons    :  14819.76s CPU   2530.19s WALL (       1 calls)
     forces       :     29.92s CPU      5.03s WALL (       1 calls)
     stress       :      6.98s CPU      1.35s WALL (       1 calls)

     Called by init_run:
     wfcinit      :    553.62s CPU     94.68s WALL (       1 calls)
     potinit      :    188.18s CPU     33.18s WALL (       1 calls)
     hinit0       :     60.46s CPU     11.76s WALL (       1 calls)

     Called by electrons:
     c_bands      :  12742.43s CPU   2178.42s WALL (       8 calls)
     sum_band     :   2019.39s CPU    342.10s WALL (       8 calls)
     v_of_rho     :     22.66s CPU      3.73s WALL (       8 calls)
     newd         :      2.84s CPU      0.57s WALL (       8 calls)
     PAW_pot      :     30.74s CPU      5.12s WALL (       8 calls)
     mix_rho      :      4.72s CPU      0.77s WALL (       8 calls)

     Called by c_bands:
     init_us_2    :      0.37s CPU      0.12s WALL (    1064 calls)
     cegterg      :  12741.32s CPU   2178.13s WALL (     448 calls)

     Called by *egterg:
     cdiaghg      :      7.67s CPU      2.10s WALL (    2670 calls)
     h_psi        :  12357.22s CPU   2105.41s WALL (    2782 calls)
     s_psi        :      4.66s CPU      0.44s WALL (    2782 calls)
     g_psi        :      0.19s CPU      0.02s WALL (    2278 calls)

     Called by h_psi:
     h_psi:calbec :    120.70s CPU     22.73s WALL (    2782 calls)
     vloc_psi     :  11886.31s CPU   2025.43s WALL (    2782 calls)
                                        0.00s GPU  (    2782 calls)
     add_vuspsi   :      1.59s CPU      0.47s WALL (    2782 calls)

     General routines
     calbec       :    142.45s CPU     29.27s WALL (    4182 calls)
     fft          :     91.76s CPU     16.92s WALL (     128 calls)
     ffts         :    184.92s CPU     32.63s WALL (      16 calls)
     fftw         :  11005.66s CPU   1876.34s WALL (   39904 calls)
     interpolate  :    184.73s CPU     32.60s WALL (       8 calls)

     Parallel routines

     PWSCF        :      4h21m CPU  44m39.07s WALL


   This run was terminated on:  18:10:41   6Sep2026            

=------------------------------------------------------------------------------=
   JOB DONE.
=------------------------------------------------------------------------------=
