
     Program PWSCF v.7.5 starts on  6Sep2026 at 20:50:36 

     This program is part of the open-source Quantum ESPRESSO suite
     for quantum simulation of materials; please cite
         "P. Giannozzi et al., J. Phys.:Condens. Matter 21 395502 (2009);
         "P. Giannozzi et al., J. Phys.:Condens. Matter 29 465901 (2017);
         "P. Giannozzi et al., J. Chem. Phys. 152 154105 (2020);
          URL http://www.quantum-espresso.org", 
     in publications or presentations arising from this work. More details at
     http://www.quantum-espresso.org/quote

     Parallel version (MPI & OpenMP), running on      96 processor cores
     Number of MPI processes:                 4
     Threads/MPI process:                    24

     MPI processes distributed on     1 nodes
     13149 MiB available memory on the printing compute node when the environment starts

     Waiting for input...
     Reading input from standard input
Warning: card &CELL ignored

     Current dimensions of program PWSCF are:
     Max number of different atomic species (ntypx) = 10
     Max number of k-points (npk) =  40000
     Max angular momentum in pseudopotentials (lmaxx) =  4
     file Sc.pbe-spn-kjpaw_psl.1.0.0.UPF: wavefunction(s)  3S 3P 3D renormalized
     file Al.pbe-n-kjpaw_psl.1.0.0.UPF: wavefunction(s)  3S 3P renormalized
     Message from routine setup:
     using ibrav=0 with symmetry is DISCOURAGED, use correct ibrav instead

     R & G space division:  proc/nbgrp/npool/nimage =       4
     Subspace diagonalization in iterative solution of the eigenvalue problem:
     a serial algorithm will be used


     Parallelization info
     --------------------
     sticks:   dense  smooth     PW     G-vecs:    dense   smooth      PW
     Min         320     160     48                 8614     3036     524
     Max         321     161     49                 8615     3039     527
     Sum        1281     641    193                34457    12149    2103

     Using Slab Decomposition



     bravais-lattice index     =            0
     lattice parameter (alat)  =       6.3306  a.u.
     unit-cell volume          =     253.7062 (a.u.)^3
     number of atoms/cell      =            2
     number of atomic types    =            2
     number of electrons       =        14.00
     number of Kohn-Sham states=           11
     kinetic-energy cutoff     =      50.0000  Ry
     charge density cutoff     =     400.0000  Ry
     scf convergence threshold =      1.0E-08
     mixing beta               =       0.7000
     number of iterations used =            8  plain     mixing
     Exchange-correlation= SLA  PW   PBX  PBC
                           (   1   4   3   4   0   0   0)

     celldm(1)=   6.330583  celldm(2)=   0.000000  celldm(3)=   0.000000
     celldm(4)=   0.000000  celldm(5)=   0.000000  celldm(6)=   0.000000

     crystal axes: (cart. coord. in units of alat)
               a(1) = (   1.000000   0.000000   0.000000 )  
               a(2) = (   0.000000   1.000000   0.000000 )  
               a(3) = (   0.000000   0.000000   1.000000 )  

     reciprocal axes: (cart. coord. in units 2 pi/alat)
               b(1) = (  1.000000  0.000000  0.000000 )  
               b(2) = (  0.000000  1.000000  0.000000 )  
               b(3) = (  0.000000  0.000000  1.000000 )  


     PseudoPot. # 1 for Sc read from file:
     /home/jdmin2003/qe-work/pseudo/Sc.pbe-spn-kjpaw_psl.1.0.0.UPF
     MD5 check sum: d5ac433e587a0148d610ca85a1be5559
     Pseudo is Projector augmented-wave + core cor, Zval = 11.0
     Generated using &quot;atomic&quot; code by A. Dal Corso  v.6.2.2
     Shape of augmentation charge: PSQ
     Using radial grid of 1173 points,  6 beta functions with: 
                l(1) =   0
                l(2) =   0
                l(3) =   1
                l(4) =   1
                l(5) =   2
                l(6) =   2
     Q(r) pseudized with 0 coefficients 


     PseudoPot. # 2 for Al read from file:
     /home/jdmin2003/qe-work/pseudo/Al.pbe-n-kjpaw_psl.1.0.0.UPF
     MD5 check sum: 502b6b27b9c6270cab5dd1084b96fa6d
     Pseudo is Projector augmented-wave + core cor, Zval =  3.0
     Generated using &quot;atomic&quot; code by A. Dal Corso  v.6.3
     Shape of augmentation charge: PSQ
     Using radial grid of 1135 points,  6 beta functions with: 
                l(1) =   0
                l(2) =   0
                l(3) =   1
                l(4) =   1
                l(5) =   2
                l(6) =   2
     Q(r) pseudized with 0 coefficients 


     atomic species   valence    mass     pseudopotential
     Sc               11.00    44.95600     Sc( 1.00)
     Al                3.00    26.98200     Al( 1.00)

     48 Sym. Ops., with inversion, found



   Cartesian axes

     site n.     atom                  positions (alat units)
         1        Sc     tau(   1) = (   0.0000000   0.0000000   0.0000000  )
         2        Al     tau(   2) = (   0.5000000   0.5000000   0.5000000  )

     number of k points=    56  Marzari-Vanderbilt smearing, width (Ry)=  0.0200
                       cart. coord. in units 2pi/alat
        k(    1) = (   0.0000000   0.0000000   0.0000000), wk =   0.0020000
        k(    2) = (   0.0000000   0.0000000   0.1000000), wk =   0.0120000
        k(    3) = (   0.0000000   0.0000000   0.2000000), wk =   0.0120000
        k(    4) = (   0.0000000   0.0000000   0.3000000), wk =   0.0120000
        k(    5) = (   0.0000000   0.0000000   0.4000000), wk =   0.0120000
        k(    6) = (   0.0000000   0.0000000  -0.5000000), wk =   0.0060000
        k(    7) = (   0.0000000   0.1000000   0.1000000), wk =   0.0240000
        k(    8) = (   0.0000000   0.1000000   0.2000000), wk =   0.0480000
        k(    9) = (   0.0000000   0.1000000   0.3000000), wk =   0.0480000
        k(   10) = (   0.0000000   0.1000000   0.4000000), wk =   0.0480000
        k(   11) = (   0.0000000   0.1000000  -0.5000000), wk =   0.0240000
        k(   12) = (   0.0000000   0.2000000   0.2000000), wk =   0.0240000
        k(   13) = (   0.0000000   0.2000000   0.3000000), wk =   0.0480000
        k(   14) = (   0.0000000   0.2000000   0.4000000), wk =   0.0480000
        k(   15) = (   0.0000000   0.2000000  -0.5000000), wk =   0.0240000
        k(   16) = (   0.0000000   0.3000000   0.3000000), wk =   0.0240000
        k(   17) = (   0.0000000   0.3000000   0.4000000), wk =   0.0480000
        k(   18) = (   0.0000000   0.3000000  -0.5000000), wk =   0.0240000
        k(   19) = (   0.0000000   0.4000000   0.4000000), wk =   0.0240000
        k(   20) = (   0.0000000   0.4000000  -0.5000000), wk =   0.0240000
        k(   21) = (   0.0000000  -0.5000000  -0.5000000), wk =   0.0060000
        k(   22) = (   0.1000000   0.1000000   0.1000000), wk =   0.0160000
        k(   23) = (   0.1000000   0.1000000   0.2000000), wk =   0.0480000
        k(   24) = (   0.1000000   0.1000000   0.3000000), wk =   0.0480000
        k(   25) = (   0.1000000   0.1000000   0.4000000), wk =   0.0480000
        k(   26) = (   0.1000000   0.1000000  -0.5000000), wk =   0.0240000
        k(   27) = (   0.1000000   0.2000000   0.2000000), wk =   0.0480000
        k(   28) = (   0.1000000   0.2000000   0.3000000), wk =   0.0960000
        k(   29) = (   0.1000000   0.2000000   0.4000000), wk =   0.0960000
        k(   30) = (   0.1000000   0.2000000  -0.5000000), wk =   0.0480000
        k(   31) = (   0.1000000   0.3000000   0.3000000), wk =   0.0480000
        k(   32) = (   0.1000000   0.3000000   0.4000000), wk =   0.0960000
        k(   33) = (   0.1000000   0.3000000  -0.5000000), wk =   0.0480000
        k(   34) = (   0.1000000   0.4000000   0.4000000), wk =   0.0480000
        k(   35) = (   0.1000000   0.4000000  -0.5000000), wk =   0.0480000
        k(   36) = (   0.1000000  -0.5000000  -0.5000000), wk =   0.0120000
        k(   37) = (   0.2000000   0.2000000   0.2000000), wk =   0.0160000
        k(   38) = (   0.2000000   0.2000000   0.3000000), wk =   0.0480000
        k(   39) = (   0.2000000   0.2000000   0.4000000), wk =   0.0480000
        k(   40) = (   0.2000000   0.2000000  -0.5000000), wk =   0.0240000
        k(   41) = (   0.2000000   0.3000000   0.3000000), wk =   0.0480000
        k(   42) = (   0.2000000   0.3000000   0.4000000), wk =   0.0960000
        k(   43) = (   0.2000000   0.3000000  -0.5000000), wk =   0.0480000
        k(   44) = (   0.2000000   0.4000000   0.4000000), wk =   0.0480000
        k(   45) = (   0.2000000   0.4000000  -0.5000000), wk =   0.0480000
        k(   46) = (   0.2000000  -0.5000000  -0.5000000), wk =   0.0120000
        k(   47) = (   0.3000000   0.3000000   0.3000000), wk =   0.0160000
        k(   48) = (   0.3000000   0.3000000   0.4000000), wk =   0.0480000
        k(   49) = (   0.3000000   0.3000000  -0.5000000), wk =   0.0240000
        k(   50) = (   0.3000000   0.4000000   0.4000000), wk =   0.0480000
        k(   51) = (   0.3000000   0.4000000  -0.5000000), wk =   0.0480000
        k(   52) = (   0.3000000  -0.5000000  -0.5000000), wk =   0.0120000
        k(   53) = (   0.4000000   0.4000000   0.4000000), wk =   0.0160000
        k(   54) = (   0.4000000   0.4000000  -0.5000000), wk =   0.0240000
        k(   55) = (   0.4000000  -0.5000000  -0.5000000), wk =   0.0120000
        k(   56) = (  -0.5000000  -0.5000000  -0.5000000), wk =   0.0020000

     Dense  grid:    34457 G-vectors     FFT dimensions: (  45,  45,  45)

     Smooth grid:    12149 G-vectors     FFT dimensions: (  30,  30,  30)

     Estimated max dynamical RAM per process >      38.92 MB

     Estimated total dynamical RAM >     155.70 MB

     Check: negative core charge=   -0.000007

     Initial potential from superposition of free atoms

     starting charge      13.9951, renormalised to      14.0000
     Starting wfcs are   14 randomized atomic wfcs
     Checking if some PAW data can be deallocated... 

     total cpu time spent up to now is      122.2 secs

     per-process dynamical memory:    47.5 Mb

     Self-consistent Calculation

     iteration #  1     ecut=    50.00 Ry     beta= 0.70
     Davidson diagonalization with overlap
     ethr =  1.00E-02,  avg # of iterations =  2.5

     Threshold (ethr) on eigenvalues was too large:
     Diagonalizing with lowered threshold

     Davidson diagonalization with overlap
     ethr =  3.61E-05,  avg # of iterations =  9.8

     total cpu time spent up to now is      836.0 secs

     total energy              =    -196.52138609 Ry
     estimated scf accuracy    <       0.01686166 Ry

     iteration #  2     ecut=    50.00 Ry     beta= 0.70
     Davidson diagonalization with overlap
     ethr =  1.20E-04,  avg # of iterations =  3.7

     total cpu time spent up to now is     1073.9 secs

     total energy              =    -196.52345162 Ry
     estimated scf accuracy    <       0.00364179 Ry

     iteration #  3     ecut=    50.00 Ry     beta= 0.70
     Davidson diagonalization with overlap
     ethr =  2.60E-05,  avg # of iterations =  3.8

     total cpu time spent up to now is     1318.4 secs

     total energy              =    -196.52459129 Ry
     estimated scf accuracy    <       0.00026426 Ry

     iteration #  4     ecut=    50.00 Ry     beta= 0.70
     Davidson diagonalization with overlap
     c_bands:  1 eigenvalues not converged
     c_bands:  1 eigenvalues not converged
     c_bands:  1 eigenvalues not converged
     c_bands:  1 eigenvalues not converged
     c_bands:  1 eigenvalues not converged
     ethr =  1.89E-06,  avg # of iterations =  8.1

     total cpu time spent up to now is     1687.0 secs

     total energy              =    -196.52476640 Ry
     estimated scf accuracy    <       0.00001204 Ry

     iteration #  5     ecut=    50.00 Ry     beta= 0.70
     Davidson diagonalization with overlap
     ethr =  8.60E-08,  avg # of iterations =  5.5

     total cpu time spent up to now is     1959.4 secs

     total energy              =    -196.52477300 Ry
     estimated scf accuracy    <       0.00000065 Ry

     iteration #  6     ecut=    50.00 Ry     beta= 0.70
     Davidson diagonalization with overlap
     ethr =  4.63E-09,  avg # of iterations =  6.0

     total cpu time spent up to now is     2259.6 secs

     total energy              =    -196.52477334 Ry
     estimated scf accuracy    <       0.00000037 Ry

     iteration #  7     ecut=    50.00 Ry     beta= 0.70
     Davidson diagonalization with overlap
     c_bands:  1 eigenvalues not converged
     ethr =  2.65E-09,  avg # of iterations =  3.9

     total cpu time spent up to now is     2484.6 secs

     End of self-consistent calculation

          k = 0.0000 0.0000 0.0000 (  1503 PWs)   bands (ev):

   -39.6064 -18.1824 -18.1824 -18.1824   1.2802   9.1335   9.1335  12.5825
    12.5825  12.5825  13.6105

          k = 0.0000 0.0000 0.1000 (  1491 PWs)   bands (ev):

   -39.6049 -18.2009 -18.1807 -18.1807   1.4247   8.9829   9.2075  12.1479
    12.1479  12.6041  13.2339

          k = 0.0000 0.0000 0.2000 (  1506 PWs)   bands (ev):

   -39.6009 -18.2491 -18.1765 -18.1765   1.8496   8.3813   9.4145  11.5357
    11.5357  12.6614  12.8506

          k = 0.0000 0.0000 0.3000 (  1518 PWs)   bands (ev):

   -39.5960 -18.3081 -18.1712 -18.1712   2.5285   7.2987   9.7053  11.0430
    11.0430  12.7341  13.0215

          k = 0.0000 0.0000 0.4000 (  1502 PWs)   bands (ev):

   -39.5920 -18.3552 -18.1668 -18.1668   3.4040   6.0561   9.9797  10.7300
    10.7300  12.7944  13.4642

          k = 0.0000 0.0000-0.5000 (  1510 PWs)   bands (ev):

   -39.5905 -18.3732 -18.1652 -18.1652   4.0973   5.2231  10.0971  10.6228
    10.6229  12.8179  13.6973

          k = 0.0000 0.1000 0.1000 (  1496 PWs)   bands (ev):

   -39.6034 -18.2003 -18.1980 -18.1792   1.5672   8.9846   9.1476  11.7122
    12.0037  12.4572  13.5459

          k = 0.0000 0.1000 0.2000 (  1497 PWs)   bands (ev):

   -39.5994 -18.2471 -18.1945 -18.1749   1.9856   8.4619   9.3001  11.1804
    11.5410  12.4483  13.1620

          k = 0.0000 0.1000 0.3000 (  1508 PWs)   bands (ev):

   -39.5945 -18.3057 -18.1888 -18.1696   2.6529   7.3935   9.5928  10.8292
    11.0876  12.5266  13.1561

          k = 0.0000 0.1000 0.4000 (  1507 PWs)   bands (ev):

   -39.5906 -18.3526 -18.1843 -18.1652   3.5078   6.1714   9.9148  10.5308
    10.7871  12.6013  13.4890

          k = 0.0000 0.1000-0.5000 (  1510 PWs)   bands (ev):

   -39.5890 -18.3704 -18.1825 -18.1636   4.1645   5.3756  10.1418  10.3224
    10.6830  12.6312  13.6854

          k = 0.0000 0.2000 0.2000 (  1512 PWs)   bands (ev):

   -39.5955 -18.2448 -18.2387 -18.1706   2.3838   8.6408   8.7742  10.7957
    11.4686  12.1405  13.4452

          k = 0.0000 0.2000 0.3000 (  1521 PWs)   bands (ev):

   -39.5907 -18.2996 -18.2350 -18.1654   3.0140   7.6566   9.0316  10.6223
    11.1989  12.0996  13.3669

          k = 0.0000 0.2000 0.4000 (  1522 PWs)   bands (ev):

   -39.5867 -18.3457 -18.2298 -18.1611   3.8026   6.5058   9.3977  10.3872
    10.9448  12.1739  13.5172

          k = 0.0000 0.2000-0.5000 (  1520 PWs)   bands (ev):

   -39.5852 -18.3631 -18.2278 -18.1595   4.3569   5.8175   9.6195  10.2038
    10.8503  12.2121  13.6395

          k = 0.0000 0.3000 0.3000 (  1516 PWs)   bands (ev):

   -39.5859 -18.2948 -18.2886 -18.1601   3.5738   7.8493   8.2815  10.5199
    11.2710  11.7704  13.4353

          k = 0.0000 0.3000 0.4000 (  1522 PWs)   bands (ev):

   -39.5820 -18.3371 -18.2854 -18.1559   4.2374   7.0130   8.5880  10.2619
    11.1574  11.7470  13.5020

          k = 0.0000 0.3000-0.5000 (  1522 PWs)   bands (ev):

   -39.5805 -18.3543 -18.2830 -18.1543   4.6408   6.5024   8.8302  10.0606
    11.0808  11.7848  13.5663

          k = 0.0000 0.4000 0.4000 (  1522 PWs)   bands (ev):

   -39.5781 -18.3312 -18.3289 -18.1517   4.7003   7.4534   8.0270   9.8581
    11.3165  11.4867  13.5177

          k = 0.0000 0.4000-0.5000 (  1520 PWs)   bands (ev):

   -39.5767 -18.3470 -18.3274 -18.1501   4.9331   7.3386   8.1937   9.5213
    11.2930  11.4870  13.5512

          k = 0.0000-0.5000-0.5000 (  1516 PWs)   bands (ev):

   -39.5752 -18.3442 -18.3442 -18.1485   5.0705   7.9364   7.9364   8.9926
    11.3819  11.3819  13.5732

          k = 0.1000 0.1000 0.1000 (  1488 PWs)   bands (ev):

   -39.6019 -18.1996 -18.1962 -18.1962   1.7076   9.0517   9.0517  11.4022
    12.0357  12.0357  14.0378

          k = 0.1000 0.1000 0.2000 (  1505 PWs)   bands (ev):

   -39.5979 -18.2452 -18.1938 -18.1918   2.1196   8.5352   9.2409  10.9891
    11.4113  12.1445  13.4996

          k = 0.1000 0.1000 0.3000 (  1515 PWs)   bands (ev):

   -39.5931 -18.3034 -18.1881 -18.1863   2.7755   7.4870   9.5167  10.8525
    10.8753  12.2777  13.3277

          k = 0.1000 0.1000 0.4000 (  1509 PWs)   bands (ev):

   -39.5891 -18.3500 -18.1835 -18.1817   3.6104   6.2860   9.8231  10.4652
    10.7810  12.3758  13.5370

          k = 0.1000 0.1000-0.5000 (  1526 PWs)   bands (ev):

   -39.5876 -18.3678 -18.1818 -18.1801   4.2345   5.5234  10.0676  10.1997
    10.7449  12.4133  13.6944

          k = 0.1000 0.2000 0.2000 (  1514 PWs)   bands (ev):

   -39.5940 -18.2429 -18.2368 -18.1883   2.5119   8.6775   8.8397  10.6617
    11.2652  11.8128  13.8299

          k = 0.1000 0.2000 0.3000 (  1517 PWs)   bands (ev):

   -39.5892 -18.2973 -18.2331 -18.1827   3.1316   7.7453   9.0365  10.6567
    10.9232  11.8436  13.5953

          k = 0.1000 0.2000 0.4000 (  1511 PWs)   bands (ev):

   -39.5853 -18.3431 -18.2279 -18.1782   3.9031   6.6157   9.3127  10.4405
    10.8975  11.9242  13.6081

          k = 0.1000 0.2000-0.5000 (  1518 PWs)   bands (ev):

   -39.5838 -18.3606 -18.2259 -18.1765   4.4356   5.9495   9.4478  10.2977
    10.9174  11.9589  13.6872

          k = 0.1000 0.3000 0.3000 (  1514 PWs)   bands (ev):

   -39.5844 -18.2925 -18.2865 -18.1772   3.6835   7.9645   8.2673  10.6029
    10.9549  11.6306  13.6585

          k = 0.1000 0.3000 0.4000 (  1524 PWs)   bands (ev):

   -39.5805 -18.3347 -18.2833 -18.1729   4.3373   7.1072   8.5395  10.3271
    11.1016  11.6117  13.6176

          k = 0.1000 0.3000-0.5000 (  1532 PWs)   bands (ev):

   -39.5791 -18.3518 -18.2810 -18.1712   4.7333   6.6008   8.7198  10.1682
    11.1604  11.6186  13.6371

          k = 0.1000 0.4000 0.4000 (  1529 PWs)   bands (ev):

   -39.5767 -18.3289 -18.3266 -18.1685   4.8044   7.5228   7.9670   9.9226
    11.3116  11.5279  13.5873

          k = 0.1000 0.4000-0.5000 (  1520 PWs)   bands (ev):

   -39.5752 -18.3446 -18.3251 -18.1668   5.0429   7.3680   8.1109   9.6393
    11.3933  11.5177  13.5871

          k = 0.1000-0.5000-0.5000 (  1520 PWs)   bands (ev):

   -39.5738 -18.3419 -18.3419 -18.1651   5.1901   7.8584   7.8584   9.2030
    11.4949  11.4949  13.5798

          k = 0.2000 0.2000 0.2000 (  1502 PWs)   bands (ev):

   -39.5902 -18.2400 -18.2318 -18.2318   2.8858   8.7736   8.7736  10.1929
    11.2869  11.2869  14.5320

          k = 0.2000 0.2000 0.3000 (  1516 PWs)   bands (ev):

   -39.5854 -18.2914 -18.2304 -18.2257   3.4730   7.9700   8.8892  10.3341
    10.8602  11.4547  13.9930

          k = 0.2000 0.2000 0.4000 (  1522 PWs)   bands (ev):

   -39.5815 -18.3366 -18.2252 -18.2207   4.1916   6.9195   8.9751  10.6066
    10.8054  11.5192  13.7656

          k = 0.2000 0.2000-0.5000 (  1522 PWs)   bands (ev):

   -39.5800 -18.3538 -18.2231 -18.2189   4.6620   6.3208   9.0043  10.5270
    11.0986  11.4516  13.7476

          k = 0.2000 0.3000 0.3000 (  1511 PWs)   bands (ev):

   -39.5806 -18.2866 -18.2810 -18.2217   4.0018   8.2156   8.2226  10.2949
    10.8613  11.3855  14.1645

          k = 0.2000 0.3000 0.4000 (  1516 PWs)   bands (ev):

   -39.5768 -18.3284 -18.2778 -18.2167   4.6264   7.3346   8.3832  10.4707
    10.9645  11.4742  13.8322

          k = 0.2000 0.3000-0.5000 (  1514 PWs)   bands (ev):

   -39.5753 -18.3452 -18.2755 -18.2148   5.0010   6.8545   8.4341  10.4920
    11.2848  11.3579  13.7609

          k = 0.2000 0.4000 0.4000 (  1504 PWs)   bands (ev):

   -39.5730 -18.3227 -18.3206 -18.2118   5.1077   7.6486   7.8144  10.1696
    11.3307  11.6407  13.3952

          k = 0.2000 0.4000-0.5000 (  1516 PWs)   bands (ev):

   -39.5715 -18.3384 -18.3191 -18.2100   5.3635   7.4010   7.9062  10.0496
    11.6120  11.6407  13.1424

          k = 0.2000-0.5000-0.5000 (  1524 PWs)   bands (ev):

   -39.5701 -18.3358 -18.3358 -18.2082   5.5434   7.6673   7.6673   9.8139
    11.7976  11.7976  12.8505

          k = 0.3000 0.3000 0.3000 (  1523 PWs)   bands (ev):

   -39.5759 -18.2815 -18.2742 -18.2742   4.4934   8.1521   8.1521  10.0401
    11.2108  11.2108  13.6593

          k = 0.3000 0.3000 0.4000 (  1519 PWs)   bands (ev):

   -39.5721 -18.3206 -18.2729 -18.2687   5.0689   7.5498   8.0840  10.4991
    11.1326  11.5241  13.0264

          k = 0.3000 0.3000-0.5000 (  1514 PWs)   bands (ev):

   -39.5707 -18.3372 -18.2707 -18.2665   5.4080   7.1530   8.0557  10.9140
    11.1143  11.5652  12.7683

          k = 0.3000 0.4000 0.4000 (  1503 PWs)   bands (ev):

   -39.5683 -18.3151 -18.3132 -18.2651   5.5754   7.6339   7.6614  10.6417
    11.4158  11.7894  12.2759

          k = 0.3000 0.4000-0.5000 (  1516 PWs)   bands (ev):

   -39.5669 -18.3307 -18.3118 -18.2631   5.8619   7.3741   7.6642  10.8041
    11.5230  11.7567  12.2368

          k = 0.3000-0.5000-0.5000 (  1512 PWs)   bands (ev):

   -39.5654 -18.3281 -18.3281 -18.2610   6.1077   7.4518   7.4518  10.7601
    11.3580  12.2049  12.2049

          k = 0.4000 0.4000 0.4000 (  1523 PWs)   bands (ev):

   -39.5646 -18.3098 -18.3073 -18.3073   6.1186   7.4935   7.4935  10.7294
    11.7318  11.9169  11.9169

          k = 0.4000 0.4000-0.5000 (  1520 PWs)   bands (ev):

   -39.5631 -18.3244 -18.3066 -18.3050   6.4437   7.3172   7.4412  10.5200
    11.7344  11.9673  12.4579

          k = 0.4000-0.5000-0.5000 (  1520 PWs)   bands (ev):

   -39.5617 -18.3220 -18.3220 -18.3035   6.8000   7.2902   7.2902  10.0614
    11.9074  12.5914  13.6364

          k =-0.5000-0.5000-0.5000 (  1568 PWs)   bands (ev):

   -39.5603 -18.3198 -18.3198 -18.3198   7.2304   7.2304   7.2304   9.4235
    12.7632  12.7632  12.7633

     the Fermi energy is     9.8212 ev

!    total energy              =    -196.52477343 Ry
     total all-electron energy =     -2014.156337 Ry
     estimated scf accuracy    <          2.4E-10 Ry
     smearing contrib. (-TS)   =       0.00029831 Ry
     internal energy E=F+TS    =    -196.52507174 Ry

     The total energy is F=E-TS. E is the sum of the following terms:
     one-electron contribution =     -38.96776497 Ry
     hartree contribution      =      24.14711869 Ry
     xc contribution           =     -20.13936201 Ry
     ewald contribution        =     -66.62521896 Ry
     one-center paw contrib.   =     -94.93984450 Ry

     convergence has been achieved in   7 iterations

     Forces acting on atoms (cartesian axes, Ry/au):

     atom    1 type  1   force =     0.00000000    0.00000000    0.00000000
     atom    2 type  2   force =     0.00000000    0.00000000    0.00000000

     Total force =     0.000000     Total SCF correction =     0.000000


     Computing stress (Cartesian axis) and pressure

          total   stress  (Ry/bohr**3)                   (kbar)     P=       17.95
   0.00012199   0.00000000   0.00000000           17.95        0.00        0.00
   0.00000000   0.00012199   0.00000000            0.00       17.95        0.00
   0.00000000   0.00000000   0.00012199            0.00        0.00       17.95


     Writing all to output data dir ./tmp_3.350/scal_3.350.save/ :
     XML data file, charge density, pseudopotentials, collected wavefunctions

     init_run     :    673.32s CPU    122.09s WALL (       1 calls)
     electrons    :  13859.15s CPU   2362.44s WALL (       1 calls)
     forces       :     27.20s CPU      4.41s WALL (       1 calls)
     stress       :      6.62s CPU      1.26s WALL (       1 calls)

     Called by init_run:
     wfcinit      :    528.05s CPU     95.48s WALL (       1 calls)
     potinit      :     66.21s CPU     12.40s WALL (       1 calls)
     hinit0       :     77.45s CPU     12.41s WALL (       1 calls)

     Called by electrons:
     c_bands      :  11892.28s CPU   2029.52s WALL (       8 calls)
     sum_band     :   1911.61s CPU    321.65s WALL (       8 calls)
     v_of_rho     :     21.87s CPU      3.50s WALL (       8 calls)
     newd         :      4.01s CPU      2.28s WALL (       8 calls)
     PAW_pot      :     29.47s CPU      4.74s WALL (       8 calls)
     mix_rho      :      4.43s CPU      0.71s WALL (       8 calls)

     Called by c_bands:
     init_us_2    :      0.53s CPU      0.16s WALL (    1064 calls)
     cegterg      :  11891.12s CPU   2029.18s WALL (     448 calls)

     Called by *egterg:
     cdiaghg      :      7.34s CPU      2.00s WALL (    2818 calls)
     h_psi        :  11475.54s CPU   1962.73s WALL (    2930 calls)
     s_psi        :      6.77s CPU      0.49s WALL (    2930 calls)
     g_psi        :      0.34s CPU      0.02s WALL (    2426 calls)

     Called by h_psi:
     h_psi:calbec :    120.71s CPU     21.31s WALL (    2930 calls)
     vloc_psi     :  11007.28s CPU   1884.03s WALL (    2930 calls)
                                        0.00s GPU  (    2930 calls)
     add_vuspsi   :      1.76s CPU      0.51s WALL (    2930 calls)

     General routines
     calbec       :    141.19s CPU     25.77s WALL (    4330 calls)
     fft          :    108.66s CPU     21.15s WALL (     128 calls)
     ffts         :     62.84s CPU     11.83s WALL (      16 calls)
     fftw         :  10249.46s CPU   1759.35s WALL (   38966 calls)
     interpolate  :     62.64s CPU     14.10s WALL (       8 calls)

     Parallel routines

     PWSCF        :      4h 3m CPU  41m32.71s WALL


   This run was terminated on:  21:32: 9   6Sep2026            

=------------------------------------------------------------------------------=
   JOB DONE.
=------------------------------------------------------------------------------=
