
     Program PWSCF v.7.5 starts on  6Sep2026 at 22:26:33 

     This program is part of the open-source Quantum ESPRESSO suite
     for quantum simulation of materials; please cite
         "P. Giannozzi et al., J. Phys.:Condens. Matter 21 395502 (2009);
         "P. Giannozzi et al., J. Phys.:Condens. Matter 29 465901 (2017);
         "P. Giannozzi et al., J. Chem. Phys. 152 154105 (2020);
          URL http://www.quantum-espresso.org", 
     in publications or presentations arising from this work. More details at
     http://www.quantum-espresso.org/quote

     Parallel version (MPI & OpenMP), running on      96 processor cores
     Number of MPI processes:                 4
     Threads/MPI process:                    24

     MPI processes distributed on     1 nodes
     13080 MiB available memory on the printing compute node when the environment starts

     Waiting for input...
     Reading input from standard input
Warning: card &CELL ignored

     Current dimensions of program PWSCF are:
     Max number of different atomic species (ntypx) = 10
     Max number of k-points (npk) =  40000
     Max angular momentum in pseudopotentials (lmaxx) =  4
     file Sc.pbe-spn-kjpaw_psl.1.0.0.UPF: wavefunction(s)  3S 3P 3D renormalized
     file Al.pbe-n-kjpaw_psl.1.0.0.UPF: wavefunction(s)  3S 3P renormalized
     Message from routine setup:
     using ibrav=0 with symmetry is DISCOURAGED, use correct ibrav instead

     R & G space division:  proc/nbgrp/npool/nimage =       4
     Subspace diagonalization in iterative solution of the eigenvalue problem:
     a serial algorithm will be used


     Parallelization info
     --------------------
     sticks:   dense  smooth     PW     G-vecs:    dense   smooth      PW
     Min         338     168     53                 9380     3300     581
     Max         339     169     54                 9385     3303     582
     Sum        1353     673    213                37529    13205    2325

     Using Slab Decomposition



     bravais-lattice index     =            0
     lattice parameter (alat)  =       6.5196  a.u.
     unit-cell volume          =     277.1111 (a.u.)^3
     number of atoms/cell      =            2
     number of atomic types    =            2
     number of electrons       =        14.00
     number of Kohn-Sham states=           11
     kinetic-energy cutoff     =      50.0000  Ry
     charge density cutoff     =     400.0000  Ry
     scf convergence threshold =      1.0E-08
     mixing beta               =       0.7000
     number of iterations used =            8  plain     mixing
     Exchange-correlation= SLA  PW   PBX  PBC
                           (   1   4   3   4   0   0   0)

     celldm(1)=   6.519555  celldm(2)=   0.000000  celldm(3)=   0.000000
     celldm(4)=   0.000000  celldm(5)=   0.000000  celldm(6)=   0.000000

     crystal axes: (cart. coord. in units of alat)
               a(1) = (   1.000000   0.000000   0.000000 )  
               a(2) = (   0.000000   1.000000   0.000000 )  
               a(3) = (   0.000000   0.000000   1.000000 )  

     reciprocal axes: (cart. coord. in units 2 pi/alat)
               b(1) = (  1.000000  0.000000  0.000000 )  
               b(2) = (  0.000000  1.000000  0.000000 )  
               b(3) = (  0.000000  0.000000  1.000000 )  


     PseudoPot. # 1 for Sc read from file:
     /home/jdmin2003/qe-work/pseudo/Sc.pbe-spn-kjpaw_psl.1.0.0.UPF
     MD5 check sum: d5ac433e587a0148d610ca85a1be5559
     Pseudo is Projector augmented-wave + core cor, Zval = 11.0
     Generated using &quot;atomic&quot; code by A. Dal Corso  v.6.2.2
     Shape of augmentation charge: PSQ
     Using radial grid of 1173 points,  6 beta functions with: 
                l(1) =   0
                l(2) =   0
                l(3) =   1
                l(4) =   1
                l(5) =   2
                l(6) =   2
     Q(r) pseudized with 0 coefficients 


     PseudoPot. # 2 for Al read from file:
     /home/jdmin2003/qe-work/pseudo/Al.pbe-n-kjpaw_psl.1.0.0.UPF
     MD5 check sum: 502b6b27b9c6270cab5dd1084b96fa6d
     Pseudo is Projector augmented-wave + core cor, Zval =  3.0
     Generated using &quot;atomic&quot; code by A. Dal Corso  v.6.3
     Shape of augmentation charge: PSQ
     Using radial grid of 1135 points,  6 beta functions with: 
                l(1) =   0
                l(2) =   0
                l(3) =   1
                l(4) =   1
                l(5) =   2
                l(6) =   2
     Q(r) pseudized with 0 coefficients 


     atomic species   valence    mass     pseudopotential
     Sc               11.00    44.95600     Sc( 1.00)
     Al                3.00    26.98200     Al( 1.00)

     48 Sym. Ops., with inversion, found



   Cartesian axes

     site n.     atom                  positions (alat units)
         1        Sc     tau(   1) = (   0.0000000   0.0000000   0.0000000  )
         2        Al     tau(   2) = (   0.5000000   0.5000000   0.5000000  )

     number of k points=    56  Marzari-Vanderbilt smearing, width (Ry)=  0.0200
                       cart. coord. in units 2pi/alat
        k(    1) = (   0.0000000   0.0000000   0.0000000), wk =   0.0020000
        k(    2) = (   0.0000000   0.0000000   0.1000000), wk =   0.0120000
        k(    3) = (   0.0000000   0.0000000   0.2000000), wk =   0.0120000
        k(    4) = (   0.0000000   0.0000000   0.3000000), wk =   0.0120000
        k(    5) = (   0.0000000   0.0000000   0.4000000), wk =   0.0120000
        k(    6) = (   0.0000000   0.0000000  -0.5000000), wk =   0.0060000
        k(    7) = (   0.0000000   0.1000000   0.1000000), wk =   0.0240000
        k(    8) = (   0.0000000   0.1000000   0.2000000), wk =   0.0480000
        k(    9) = (   0.0000000   0.1000000   0.3000000), wk =   0.0480000
        k(   10) = (   0.0000000   0.1000000   0.4000000), wk =   0.0480000
        k(   11) = (   0.0000000   0.1000000  -0.5000000), wk =   0.0240000
        k(   12) = (   0.0000000   0.2000000   0.2000000), wk =   0.0240000
        k(   13) = (   0.0000000   0.2000000   0.3000000), wk =   0.0480000
        k(   14) = (   0.0000000   0.2000000   0.4000000), wk =   0.0480000
        k(   15) = (   0.0000000   0.2000000  -0.5000000), wk =   0.0240000
        k(   16) = (   0.0000000   0.3000000   0.3000000), wk =   0.0240000
        k(   17) = (   0.0000000   0.3000000   0.4000000), wk =   0.0480000
        k(   18) = (   0.0000000   0.3000000  -0.5000000), wk =   0.0240000
        k(   19) = (   0.0000000   0.4000000   0.4000000), wk =   0.0240000
        k(   20) = (   0.0000000   0.4000000  -0.5000000), wk =   0.0240000
        k(   21) = (   0.0000000  -0.5000000  -0.5000000), wk =   0.0060000
        k(   22) = (   0.1000000   0.1000000   0.1000000), wk =   0.0160000
        k(   23) = (   0.1000000   0.1000000   0.2000000), wk =   0.0480000
        k(   24) = (   0.1000000   0.1000000   0.3000000), wk =   0.0480000
        k(   25) = (   0.1000000   0.1000000   0.4000000), wk =   0.0480000
        k(   26) = (   0.1000000   0.1000000  -0.5000000), wk =   0.0240000
        k(   27) = (   0.1000000   0.2000000   0.2000000), wk =   0.0480000
        k(   28) = (   0.1000000   0.2000000   0.3000000), wk =   0.0960000
        k(   29) = (   0.1000000   0.2000000   0.4000000), wk =   0.0960000
        k(   30) = (   0.1000000   0.2000000  -0.5000000), wk =   0.0480000
        k(   31) = (   0.1000000   0.3000000   0.3000000), wk =   0.0480000
        k(   32) = (   0.1000000   0.3000000   0.4000000), wk =   0.0960000
        k(   33) = (   0.1000000   0.3000000  -0.5000000), wk =   0.0480000
        k(   34) = (   0.1000000   0.4000000   0.4000000), wk =   0.0480000
        k(   35) = (   0.1000000   0.4000000  -0.5000000), wk =   0.0480000
        k(   36) = (   0.1000000  -0.5000000  -0.5000000), wk =   0.0120000
        k(   37) = (   0.2000000   0.2000000   0.2000000), wk =   0.0160000
        k(   38) = (   0.2000000   0.2000000   0.3000000), wk =   0.0480000
        k(   39) = (   0.2000000   0.2000000   0.4000000), wk =   0.0480000
        k(   40) = (   0.2000000   0.2000000  -0.5000000), wk =   0.0240000
        k(   41) = (   0.2000000   0.3000000   0.3000000), wk =   0.0480000
        k(   42) = (   0.2000000   0.3000000   0.4000000), wk =   0.0960000
        k(   43) = (   0.2000000   0.3000000  -0.5000000), wk =   0.0480000
        k(   44) = (   0.2000000   0.4000000   0.4000000), wk =   0.0480000
        k(   45) = (   0.2000000   0.4000000  -0.5000000), wk =   0.0480000
        k(   46) = (   0.2000000  -0.5000000  -0.5000000), wk =   0.0120000
        k(   47) = (   0.3000000   0.3000000   0.3000000), wk =   0.0160000
        k(   48) = (   0.3000000   0.3000000   0.4000000), wk =   0.0480000
        k(   49) = (   0.3000000   0.3000000  -0.5000000), wk =   0.0240000
        k(   50) = (   0.3000000   0.4000000   0.4000000), wk =   0.0480000
        k(   51) = (   0.3000000   0.4000000  -0.5000000), wk =   0.0480000
        k(   52) = (   0.3000000  -0.5000000  -0.5000000), wk =   0.0120000
        k(   53) = (   0.4000000   0.4000000   0.4000000), wk =   0.0160000
        k(   54) = (   0.4000000   0.4000000  -0.5000000), wk =   0.0240000
        k(   55) = (   0.4000000  -0.5000000  -0.5000000), wk =   0.0120000
        k(   56) = (  -0.5000000  -0.5000000  -0.5000000), wk =   0.0020000

     Dense  grid:    37529 G-vectors     FFT dimensions: (  45,  45,  45)

     Smooth grid:    13205 G-vectors     FFT dimensions: (  30,  30,  30)

     Estimated max dynamical RAM per process >      41.97 MB

     Estimated total dynamical RAM >     167.89 MB

     Check: negative core charge=   -0.000007

     Initial potential from superposition of free atoms

     starting charge      13.9951, renormalised to      14.0000
     Starting wfcs are   14 randomized atomic wfcs
     Checking if some PAW data can be deallocated... 

     total cpu time spent up to now is      119.3 secs

     per-process dynamical memory:    48.1 Mb

     Self-consistent Calculation

     iteration #  1     ecut=    50.00 Ry     beta= 0.70
     Davidson diagonalization with overlap
     ethr =  1.00E-02,  avg # of iterations =  2.4

     Threshold (ethr) on eigenvalues was too large:
     Diagonalizing with lowered threshold

     Davidson diagonalization with overlap
     c_bands:  1 eigenvalues not converged
     ethr =  4.18E-05,  avg # of iterations = 10.0

     total cpu time spent up to now is      832.8 secs

     total energy              =    -196.51810916 Ry
     estimated scf accuracy    <       0.01917609 Ry

     iteration #  2     ecut=    50.00 Ry     beta= 0.70
     Davidson diagonalization with overlap
     ethr =  1.37E-04,  avg # of iterations =  4.9

     total cpu time spent up to now is     1087.9 secs

     total energy              =    -196.52035101 Ry
     estimated scf accuracy    <       0.00775553 Ry

     iteration #  3     ecut=    50.00 Ry     beta= 0.70
     Davidson diagonalization with overlap
     ethr =  5.54E-05,  avg # of iterations =  4.0

     total cpu time spent up to now is     1319.3 secs

     total energy              =    -196.52258226 Ry
     estimated scf accuracy    <       0.00043410 Ry

     iteration #  4     ecut=    50.00 Ry     beta= 0.70
     Davidson diagonalization with overlap
     c_bands:  1 eigenvalues not converged
     c_bands:  1 eigenvalues not converged
     ethr =  3.10E-06,  avg # of iterations =  7.0

     total cpu time spent up to now is     1663.6 secs

     total energy              =    -196.52280149 Ry
     estimated scf accuracy    <       0.00000540 Ry

     iteration #  5     ecut=    50.00 Ry     beta= 0.70
     Davidson diagonalization with overlap
     ethr =  3.86E-08,  avg # of iterations =  8.2

     total cpu time spent up to now is     2007.3 secs

     total energy              =    -196.52281412 Ry
     estimated scf accuracy    <       0.00000276 Ry

     iteration #  6     ecut=    50.00 Ry     beta= 0.70
     Davidson diagonalization with overlap
     ethr =  1.97E-08,  avg # of iterations =  6.2

     total cpu time spent up to now is     2299.4 secs

     total energy              =    -196.52281494 Ry
     estimated scf accuracy    <       0.00000330 Ry

     iteration #  7     ecut=    50.00 Ry     beta= 0.70
     Davidson diagonalization with overlap
     ethr =  1.97E-08,  avg # of iterations =  2.3

     total cpu time spent up to now is     2501.1 secs

     total energy              =    -196.52281527 Ry
     estimated scf accuracy    <       0.00000022 Ry

     iteration #  8     ecut=    50.00 Ry     beta= 0.70
     Davidson diagonalization with overlap
     ethr =  1.56E-09,  avg # of iterations =  7.0

     total cpu time spent up to now is     2797.8 secs

     total energy              =    -196.52281556 Ry
     estimated scf accuracy    <       0.00000024 Ry

     iteration #  9     ecut=    50.00 Ry     beta= 0.70
     Davidson diagonalization with overlap
     ethr =  1.56E-09,  avg # of iterations =  1.6

     total cpu time spent up to now is     2988.6 secs

     total energy              =    -196.52281556 Ry
     estimated scf accuracy    <       0.00000007 Ry

     iteration # 10     ecut=    50.00 Ry     beta= 0.70
     Davidson diagonalization with overlap
     ethr =  5.28E-10,  avg # of iterations =  4.3

     total cpu time spent up to now is     3216.2 secs

     total energy              =    -196.52281556 Ry
     estimated scf accuracy    <       0.00000002 Ry

     iteration # 11     ecut=    50.00 Ry     beta= 0.70
     Davidson diagonalization with overlap
     ethr =  1.10E-10,  avg # of iterations =  4.3

     total cpu time spent up to now is     3457.6 secs

     End of self-consistent calculation

          k = 0.0000 0.0000 0.0000 (  1647 PWs)   bands (ev):

   -40.8502 -19.4249 -19.4249 -19.4249   0.6407   8.2835   8.2835  11.3330
    11.3331  11.3331  12.2703

          k = 0.0000 0.0000 0.1000 (  1683 PWs)   bands (ev):

   -40.8492 -19.4381 -19.4239 -19.4239   0.7742   8.1236   8.3494  10.9398
    10.9398  11.3516  11.8927

          k = 0.0000 0.0000 0.2000 (  1671 PWs)   bands (ev):

   -40.8466 -19.4723 -19.4208 -19.4208   1.1676   7.4966   8.5340  10.3883
    10.3883  11.4009  11.5253

          k = 0.0000 0.0000 0.3000 (  1667 PWs)   bands (ev):

   -40.8433 -19.5144 -19.4171 -19.4171   1.7977   6.4119   8.7904   9.9462
     9.9462  11.4631  11.6895

          k = 0.0000 0.0000 0.4000 (  1654 PWs)   bands (ev):

   -40.8407 -19.5481 -19.4139 -19.4139   2.6071   5.2124   9.0290   9.6659
     9.6659  11.5147  12.0917

          k = 0.0000 0.0000-0.5000 (  1654 PWs)   bands (ev):

   -40.8397 -19.5610 -19.4128 -19.4128   3.2212   4.4527   9.1298   9.5702
     9.5702  11.5347  12.2997

          k = 0.0000 0.1000 0.1000 (  1665 PWs)   bands (ev):

   -40.8482 -19.4376 -19.4362 -19.4227   0.9060   8.1194   8.2808  10.5322
    10.8064  11.2254  12.2077

          k = 0.0000 0.1000 0.2000 (  1658 PWs)   bands (ev):

   -40.8456 -19.4710 -19.4336 -19.4196   1.2940   7.5725   8.4124  10.0583
    10.3922  11.2172  11.8230

          k = 0.0000 0.1000 0.3000 (  1659 PWs)   bands (ev):

   -40.8423 -19.5128 -19.4297 -19.4159   1.9142   6.5032   8.6739   9.7559
     9.9877  11.2851  11.8145

          k = 0.0000 0.1000 0.4000 (  1662 PWs)   bands (ev):

   -40.8397 -19.5464 -19.4265 -19.4129   2.7058   5.3235   8.9596   9.4925
     9.7197  11.3500  12.1155

          k = 0.0000 0.1000-0.5000 (  1658 PWs)   bands (ev):

   -40.8387 -19.5591 -19.4252 -19.4117   3.2913   4.5937   9.1676   9.3004
     9.6270  11.3759  12.2909

          k = 0.0000 0.2000 0.2000 (  1662 PWs)   bands (ev):

   -40.8430 -19.4692 -19.4654 -19.4166   1.6650   7.7423   7.8627   9.7249
    10.3265  10.9516  12.1111

          k = 0.0000 0.2000 0.3000 (  1655 PWs)   bands (ev):

   -40.8398 -19.5086 -19.4627 -19.4128   2.2536   6.7582   8.1067   9.5831
    10.0912  10.9153  12.0207

          k = 0.0000 0.2000 0.4000 (  1647 PWs)   bands (ev):

   -40.8372 -19.5417 -19.4590 -19.4098   2.9889   5.6461   8.4464   9.3755
     9.8683  10.9808  12.1488

          k = 0.0000 0.2000-0.5000 (  1644 PWs)   bands (ev):

   -40.8362 -19.5543 -19.4576 -19.4086   3.4932   5.0036   8.6469   9.2145
     9.7850  11.0147  12.2562

          k = 0.0000 0.3000 0.3000 (  1638 PWs)   bands (ev):

   -40.8366 -19.5051 -19.5014 -19.4091   2.7828   6.9577   7.3509   9.4930
    10.1611  10.6289  12.0940

          k = 0.0000 0.3000 0.4000 (  1641 PWs)   bands (ev):

   -40.8340 -19.5359 -19.4990 -19.4061   3.4126   6.1365   7.6496   9.2522
    10.0684  10.6078  12.1445

          k = 0.0000 0.3000-0.5000 (  1658 PWs)   bands (ev):

   -40.8330 -19.5484 -19.4975 -19.4050   3.7940   5.6424   7.8826   9.0645
    10.0029  10.6418  12.1977

          k = 0.0000 0.4000 0.4000 (  1648 PWs)   bands (ev):

   -40.8315 -19.5320 -19.5305 -19.4031   3.8731   6.5647   7.0757   8.8635
    10.2194  10.3798  12.1556

          k = 0.0000 0.4000-0.5000 (  1664 PWs)   bands (ev):

   -40.8305 -19.5436 -19.5295 -19.4020   4.1099   6.4252   7.2436   8.5426
    10.2033  10.3800  12.1821

          k = 0.0000-0.5000-0.5000 (  1652 PWs)   bands (ev):

   -40.8295 -19.5416 -19.5416 -19.4009   4.2616   6.9781   6.9781   8.0467
    10.2873  10.2873  12.1984

          k = 0.1000 0.1000 0.1000 (  1668 PWs)   bands (ev):

   -40.8472 -19.4370 -19.4350 -19.4350   1.0361   8.1800   8.1800  10.2305
    10.8469  10.8469  12.6571

          k = 0.1000 0.1000 0.2000 (  1668 PWs)   bands (ev):

   -40.8446 -19.4696 -19.4331 -19.4318   1.4188   7.6424   8.3508   9.8603
    10.2885  10.9493  12.1307

          k = 0.1000 0.1000 0.3000 (  1656 PWs)   bands (ev):

   -40.8414 -19.5112 -19.4290 -19.4279   2.0293   6.5935   8.5982   9.7588
     9.8107  11.0692  11.9681

          k = 0.1000 0.1000 0.4000 (  1654 PWs)   bands (ev):

   -40.8387 -19.5446 -19.4257 -19.4248   2.8039   5.4338   8.8706   9.4464
     9.7040  11.1559  12.1576

          k = 0.1000 0.1000-0.5000 (  1638 PWs)   bands (ev):

   -40.8377 -19.5573 -19.4244 -19.4235   3.3638   4.7308   9.0809   9.2178
     9.6738  11.1890  12.2990

          k = 0.1000 0.2000 0.2000 (  1657 PWs)   bands (ev):

   -40.8420 -19.4678 -19.4641 -19.4292   1.7848   7.7781   7.9294   9.5688
    10.1580  10.6607  12.4565

          k = 0.1000 0.2000 0.3000 (  1654 PWs)   bands (ev):

   -40.8388 -19.5070 -19.4614 -19.4253   2.3648   6.8444   8.1173   9.6003
     9.8414  10.6901  12.2190

          k = 0.1000 0.2000 0.4000 (  1662 PWs)   bands (ev):

   -40.8362 -19.5401 -19.4578 -19.4222   3.0856   5.7513   8.3791   9.4274
     9.8096  10.7619  12.2252

          k = 0.1000 0.2000-0.5000 (  1646 PWs)   bands (ev):

   -40.8352 -19.5526 -19.4563 -19.4209   3.5725   5.1272   8.5068   9.2983
     9.8309  10.7932  12.2957

          k = 0.1000 0.3000 0.3000 (  1659 PWs)   bands (ev):

   -40.8356 -19.5036 -19.5000 -19.4215   2.8875   7.0695   7.3461   9.5705
     9.8608  10.5040  12.2919

          k = 0.1000 0.3000 0.4000 (  1650 PWs)   bands (ev):

   -40.8330 -19.5343 -19.4976 -19.4183   3.5093   6.2277   7.6197   9.3142
    10.0031  10.4865  12.2436

          k = 0.1000 0.3000-0.5000 (  1650 PWs)   bands (ev):

   -40.8321 -19.5467 -19.4960 -19.4171   3.8849   5.7373   7.7998   9.1634
    10.0608  10.4923  12.2569

          k = 0.1000 0.4000 0.4000 (  1652 PWs)   bands (ev):

   -40.8305 -19.5304 -19.5289 -19.4152   3.9739   6.6367   7.0354   8.9275
    10.2037  10.4115  12.2167

          k = 0.1000 0.4000-0.5000 (  1658 PWs)   bands (ev):

   -40.8295 -19.5419 -19.5279 -19.4140   4.2157   6.4610   7.1860   8.6545
    10.2831  10.4015  12.2130

          k = 0.1000-0.5000-0.5000 (  1648 PWs)   bands (ev):

   -40.8286 -19.5400 -19.5400 -19.4128   4.3767   6.9241   6.9241   8.2382
    10.3808  10.3808  12.2041

          k = 0.2000 0.2000 0.2000 (  1650 PWs)   bands (ev):

   -40.8394 -19.4656 -19.4606 -19.4606   2.1356   7.8729   7.8729   9.0885
    10.1928  10.1928  13.1159

          k = 0.2000 0.2000 0.3000 (  1653 PWs)   bands (ev):

   -40.8362 -19.5030 -19.4592 -19.4564   2.6886   7.0675   7.9904   9.2429
     9.8093  10.3451  12.5646

          k = 0.2000 0.2000 0.4000 (  1652 PWs)   bands (ev):

   -40.8337 -19.5355 -19.4556 -19.4530   3.3651   6.0452   8.0824   9.5762
     9.7002  10.4011  12.3591

          k = 0.2000 0.2000-0.5000 (  1654 PWs)   bands (ev):

   -40.8327 -19.5479 -19.4542 -19.4517   3.8018   5.4771   8.1156   9.5012
     9.9762  10.3414  12.3477

          k = 0.2000 0.3000 0.3000 (  1653 PWs)   bands (ev):

   -40.8331 -19.4996 -19.4962 -19.4535   3.1928   7.3262   7.3279   9.2157
     9.8012  10.2813  12.7403

          k = 0.2000 0.3000 0.4000 (  1650 PWs)   bands (ev):

   -40.8305 -19.5300 -19.4938 -19.4500   3.7906   6.4553   7.5106   9.4260
     9.8621  10.3533  12.3856

          k = 0.2000 0.3000-0.5000 (  1664 PWs)   bands (ev):

   -40.8296 -19.5423 -19.4923 -19.4487   4.1486   5.9874   7.5715   9.4579
    10.1854  10.2086  12.3360

          k = 0.2000 0.4000 0.4000 (  1647 PWs)   bands (ev):

   -40.8280 -19.5262 -19.5249 -19.4466   4.2684   6.7835   6.9310   9.1479
    10.1904  10.5022  11.9236

          k = 0.2000 0.4000-0.5000 (  1648 PWs)   bands (ev):

   -40.8270 -19.5376 -19.5238 -19.4453   4.5263   6.5219   7.0389   9.0305
    10.4733  10.4781  11.6891

          k = 0.2000-0.5000-0.5000 (  1656 PWs)   bands (ev):

   -40.8261 -19.5358 -19.5358 -19.4440   4.7181   6.7888   6.7888   8.7951
    10.6390  10.6390  11.4122

          k = 0.3000 0.3000 0.3000 (  1643 PWs)   bands (ev):

   -40.8300 -19.4960 -19.4915 -19.4915   3.6668   7.2930   7.2930   8.9232
    10.1166  10.1166  12.1700

          k = 0.3000 0.3000 0.4000 (  1663 PWs)   bands (ev):

   -40.8274 -19.5248 -19.4904 -19.4878   4.2248   6.6913   7.2547   9.3779
    10.0385  10.3786  11.5985

          k = 0.3000 0.3000-0.5000 (  1662 PWs)   bands (ev):

   -40.8264 -19.5368 -19.4889 -19.4863   4.5539   6.2965   7.2380   9.8318
    10.0187  10.3423  11.3739

          k = 0.3000 0.4000 0.4000 (  1661 PWs)   bands (ev):

   -40.8249 -19.5210 -19.5198 -19.4853   4.7272   6.8040   6.8420   9.5068
    10.2295  10.6279  10.9453

          k = 0.3000 0.4000-0.5000 (  1650 PWs)   bands (ev):

   -40.8239 -19.5323 -19.5188 -19.4838   5.0150   6.5414   6.8549   9.7111
    10.1823  10.5939  11.0017

          k = 0.3000-0.5000-0.5000 (  1656 PWs)   bands (ev):

   -40.8230 -19.5306 -19.5306 -19.4824   5.2707   6.6323   6.6323   9.6615
    10.0057  11.0019  11.0019

          k = 0.4000 0.4000 0.4000 (  1652 PWs)   bands (ev):

   -40.8224 -19.5173 -19.5157 -19.5157   5.2698   6.7031   6.7031   9.4053
    10.5268  10.7398  10.7398

          k = 0.4000 0.4000-0.5000 (  1646 PWs)   bands (ev):

   -40.8214 -19.5280 -19.5151 -19.5141   5.6013   6.5247   6.6650   9.1877
    10.5543  10.7846  11.2336

          k = 0.4000-0.5000-0.5000 (  1648 PWs)   bands (ev):

   -40.8205 -19.5264 -19.5264 -19.5131   5.9771   6.5125   6.5125   8.7374
    10.7189  11.3615  11.3616

          k =-0.5000-0.5000-0.5000 (  1640 PWs)   bands (ev):

   -40.8195 -19.5247 -19.5247 -19.5247   6.4684   6.4684   6.4684   8.0527
    11.5269  11.5269  12.2578

     the Fermi energy is     8.8334 ev

!    total energy              =    -196.52281557 Ry
     total all-electron energy =     -2014.154379 Ry
     estimated scf accuracy    <          1.2E-09 Ry
     smearing contrib. (-TS)   =       0.00030228 Ry
     internal energy E=F+TS    =    -196.52311784 Ry

     The total energy is F=E-TS. E is the sum of the following terms:
     one-electron contribution =     -41.80317057 Ry
     hartree contribution      =      24.94306384 Ry
     xc contribution           =     -20.03692741 Ry
     ewald contribution        =     -64.69405319 Ry
     one-center paw contrib.   =     -94.93203051 Ry

     convergence has been achieved in  11 iterations

     Forces acting on atoms (cartesian axes, Ry/au):

     atom    1 type  1   force =     0.00000000    0.00000000    0.00000000
     atom    2 type  2   force =     0.00000000    0.00000000    0.00000000

     Total force =     0.000000     Total SCF correction =     0.000000


     Computing stress (Cartesian axis) and pressure

          total   stress  (Ry/bohr**3)                   (kbar)     P=      -44.59
  -0.00030310   0.00000000   0.00000000          -44.59        0.00        0.00
   0.00000000  -0.00030310   0.00000000            0.00      -44.59        0.00
   0.00000000   0.00000000  -0.00030310            0.00        0.00      -44.59


     Writing all to output data dir ./tmp_3.450/scal_3.450.save/ :
     XML data file, charge density, pseudopotentials, collected wavefunctions

     init_run     :    672.45s CPU    119.18s WALL (       1 calls)
     electrons    :  19564.00s CPU   3338.34s WALL (       1 calls)
     forces       :     27.28s CPU      4.44s WALL (       1 calls)
     stress       :      6.55s CPU      1.31s WALL (       1 calls)

     Called by init_run:
     wfcinit      :    523.11s CPU     87.71s WALL (       1 calls)
     potinit      :     71.56s CPU     15.81s WALL (       1 calls)
     hinit0       :     76.21s CPU     11.79s WALL (       1 calls)

     Called by electrons:
     c_bands      :  16606.05s CPU   2840.13s WALL (      12 calls)
     sum_band     :   2870.42s CPU    483.95s WALL (      12 calls)
     v_of_rho     :     32.62s CPU      5.23s WALL (      12 calls)
     newd         :      5.29s CPU      4.60s WALL (      12 calls)
     PAW_pot      :     44.22s CPU      7.16s WALL (      12 calls)
     mix_rho      :      7.51s CPU      1.17s WALL (      12 calls)

     Called by c_bands:
     init_us_2    :      0.85s CPU      0.21s WALL (    1512 calls)
     cegterg      :  16604.34s CPU   2839.69s WALL (     672 calls)

     Called by *egterg:
     cdiaghg      :     11.48s CPU      3.00s WALL (    4092 calls)
     h_psi        :  15776.58s CPU   2693.21s WALL (    4204 calls)
     s_psi        :      8.89s CPU      0.62s WALL (    4204 calls)
     g_psi        :      0.43s CPU      0.04s WALL (    3476 calls)

     Called by h_psi:
     h_psi:calbec :    172.59s CPU     30.44s WALL (    4204 calls)
     vloc_psi     :  15102.50s CPU   2580.41s WALL (    4204 calls)
                                        0.00s GPU  (    4204 calls)
     add_vuspsi   :      2.44s CPU      0.74s WALL (    4204 calls)

     General routines
     calbec       :    198.61s CPU     36.61s WALL (    5828 calls)
     fft          :    120.07s CPU     22.30s WALL (     180 calls)
     ffts         :     70.43s CPU     15.65s WALL (      24 calls)
     fftw         :  14224.87s CPU   2431.03s WALL (   54066 calls)
     interpolate  :     70.10s CPU     15.60s WALL (      12 calls)

     Parallel routines

     PWSCF        :      5h38m CPU  57m45.75s WALL


   This run was terminated on:  23:24:19   6Sep2026            

=------------------------------------------------------------------------------=
   JOB DONE.
=------------------------------------------------------------------------------=
