
     Program PWSCF v.7.5 starts on  6Sep2026 at 18:10:41 

     This program is part of the open-source Quantum ESPRESSO suite
     for quantum simulation of materials; please cite
         "P. Giannozzi et al., J. Phys.:Condens. Matter 21 395502 (2009);
         "P. Giannozzi et al., J. Phys.:Condens. Matter 29 465901 (2017);
         "P. Giannozzi et al., J. Chem. Phys. 152 154105 (2020);
          URL http://www.quantum-espresso.org", 
     in publications or presentations arising from this work. More details at
     http://www.quantum-espresso.org/quote

     Parallel version (MPI & OpenMP), running on      96 processor cores
     Number of MPI processes:                 4
     Threads/MPI process:                    24

     MPI processes distributed on     1 nodes
     13171 MiB available memory on the printing compute node when the environment starts

     Waiting for input...
     Reading input from standard input
Warning: card &CELL ignored

     Current dimensions of program PWSCF are:
     Max number of different atomic species (ntypx) = 10
     Max number of k-points (npk) =  40000
     Max angular momentum in pseudopotentials (lmaxx) =  4
     file Sc.pbe-spn-kjpaw_psl.1.0.0.UPF: wavefunction(s)  3S 3P 3D renormalized
     file Al.pbe-n-kjpaw_psl.1.0.0.UPF: wavefunction(s)  3S 3P renormalized
     Message from routine setup:
     using ibrav=0 with symmetry is DISCOURAGED, use correct ibrav instead

     R & G space division:  proc/nbgrp/npool/nimage =       4
     Subspace diagonalization in iterative solution of the eigenvalue problem:
     a serial algorithm will be used


     Parallelization info
     --------------------
     sticks:   dense  smooth     PW     G-vecs:    dense   smooth      PW
     Min         300     148     46                 7858     2766     482
     Max         301     149     47                 7863     2769     485
     Sum        1201     593    185                31439    11067    1935

     Using Slab Decomposition



     bravais-lattice index     =            0
     lattice parameter (alat)  =       6.1416  a.u.
     unit-cell volume          =     231.6577 (a.u.)^3
     number of atoms/cell      =            2
     number of atomic types    =            2
     number of electrons       =        14.00
     number of Kohn-Sham states=           11
     kinetic-energy cutoff     =      50.0000  Ry
     charge density cutoff     =     400.0000  Ry
     scf convergence threshold =      1.0E-08
     mixing beta               =       0.7000
     number of iterations used =            8  plain     mixing
     Exchange-correlation= SLA  PW   PBX  PBC
                           (   1   4   3   4   0   0   0)

     celldm(1)=   6.141610  celldm(2)=   0.000000  celldm(3)=   0.000000
     celldm(4)=   0.000000  celldm(5)=   0.000000  celldm(6)=   0.000000

     crystal axes: (cart. coord. in units of alat)
               a(1) = (   1.000000   0.000000   0.000000 )  
               a(2) = (   0.000000   1.000000   0.000000 )  
               a(3) = (   0.000000   0.000000   1.000000 )  

     reciprocal axes: (cart. coord. in units 2 pi/alat)
               b(1) = (  1.000000  0.000000  0.000000 )  
               b(2) = (  0.000000  1.000000  0.000000 )  
               b(3) = (  0.000000  0.000000  1.000000 )  


     PseudoPot. # 1 for Sc read from file:
     /home/jdmin2003/qe-work/pseudo/Sc.pbe-spn-kjpaw_psl.1.0.0.UPF
     MD5 check sum: d5ac433e587a0148d610ca85a1be5559
     Pseudo is Projector augmented-wave + core cor, Zval = 11.0
     Generated using &quot;atomic&quot; code by A. Dal Corso  v.6.2.2
     Shape of augmentation charge: PSQ
     Using radial grid of 1173 points,  6 beta functions with: 
                l(1) =   0
                l(2) =   0
                l(3) =   1
                l(4) =   1
                l(5) =   2
                l(6) =   2
     Q(r) pseudized with 0 coefficients 


     PseudoPot. # 2 for Al read from file:
     /home/jdmin2003/qe-work/pseudo/Al.pbe-n-kjpaw_psl.1.0.0.UPF
     MD5 check sum: 502b6b27b9c6270cab5dd1084b96fa6d
     Pseudo is Projector augmented-wave + core cor, Zval =  3.0
     Generated using &quot;atomic&quot; code by A. Dal Corso  v.6.3
     Shape of augmentation charge: PSQ
     Using radial grid of 1135 points,  6 beta functions with: 
                l(1) =   0
                l(2) =   0
                l(3) =   1
                l(4) =   1
                l(5) =   2
                l(6) =   2
     Q(r) pseudized with 0 coefficients 


     atomic species   valence    mass     pseudopotential
     Sc               11.00    44.95600     Sc( 1.00)
     Al                3.00    26.98200     Al( 1.00)

     48 Sym. Ops., with inversion, found



   Cartesian axes

     site n.     atom                  positions (alat units)
         1        Sc     tau(   1) = (   0.0000000   0.0000000   0.0000000  )
         2        Al     tau(   2) = (   0.5000000   0.5000000   0.5000000  )

     number of k points=    56  Marzari-Vanderbilt smearing, width (Ry)=  0.0200
                       cart. coord. in units 2pi/alat
        k(    1) = (   0.0000000   0.0000000   0.0000000), wk =   0.0020000
        k(    2) = (   0.0000000   0.0000000   0.1000000), wk =   0.0120000
        k(    3) = (   0.0000000   0.0000000   0.2000000), wk =   0.0120000
        k(    4) = (   0.0000000   0.0000000   0.3000000), wk =   0.0120000
        k(    5) = (   0.0000000   0.0000000   0.4000000), wk =   0.0120000
        k(    6) = (   0.0000000   0.0000000  -0.5000000), wk =   0.0060000
        k(    7) = (   0.0000000   0.1000000   0.1000000), wk =   0.0240000
        k(    8) = (   0.0000000   0.1000000   0.2000000), wk =   0.0480000
        k(    9) = (   0.0000000   0.1000000   0.3000000), wk =   0.0480000
        k(   10) = (   0.0000000   0.1000000   0.4000000), wk =   0.0480000
        k(   11) = (   0.0000000   0.1000000  -0.5000000), wk =   0.0240000
        k(   12) = (   0.0000000   0.2000000   0.2000000), wk =   0.0240000
        k(   13) = (   0.0000000   0.2000000   0.3000000), wk =   0.0480000
        k(   14) = (   0.0000000   0.2000000   0.4000000), wk =   0.0480000
        k(   15) = (   0.0000000   0.2000000  -0.5000000), wk =   0.0240000
        k(   16) = (   0.0000000   0.3000000   0.3000000), wk =   0.0240000
        k(   17) = (   0.0000000   0.3000000   0.4000000), wk =   0.0480000
        k(   18) = (   0.0000000   0.3000000  -0.5000000), wk =   0.0240000
        k(   19) = (   0.0000000   0.4000000   0.4000000), wk =   0.0240000
        k(   20) = (   0.0000000   0.4000000  -0.5000000), wk =   0.0240000
        k(   21) = (   0.0000000  -0.5000000  -0.5000000), wk =   0.0060000
        k(   22) = (   0.1000000   0.1000000   0.1000000), wk =   0.0160000
        k(   23) = (   0.1000000   0.1000000   0.2000000), wk =   0.0480000
        k(   24) = (   0.1000000   0.1000000   0.3000000), wk =   0.0480000
        k(   25) = (   0.1000000   0.1000000   0.4000000), wk =   0.0480000
        k(   26) = (   0.1000000   0.1000000  -0.5000000), wk =   0.0240000
        k(   27) = (   0.1000000   0.2000000   0.2000000), wk =   0.0480000
        k(   28) = (   0.1000000   0.2000000   0.3000000), wk =   0.0960000
        k(   29) = (   0.1000000   0.2000000   0.4000000), wk =   0.0960000
        k(   30) = (   0.1000000   0.2000000  -0.5000000), wk =   0.0480000
        k(   31) = (   0.1000000   0.3000000   0.3000000), wk =   0.0480000
        k(   32) = (   0.1000000   0.3000000   0.4000000), wk =   0.0960000
        k(   33) = (   0.1000000   0.3000000  -0.5000000), wk =   0.0480000
        k(   34) = (   0.1000000   0.4000000   0.4000000), wk =   0.0480000
        k(   35) = (   0.1000000   0.4000000  -0.5000000), wk =   0.0480000
        k(   36) = (   0.1000000  -0.5000000  -0.5000000), wk =   0.0120000
        k(   37) = (   0.2000000   0.2000000   0.2000000), wk =   0.0160000
        k(   38) = (   0.2000000   0.2000000   0.3000000), wk =   0.0480000
        k(   39) = (   0.2000000   0.2000000   0.4000000), wk =   0.0480000
        k(   40) = (   0.2000000   0.2000000  -0.5000000), wk =   0.0240000
        k(   41) = (   0.2000000   0.3000000   0.3000000), wk =   0.0480000
        k(   42) = (   0.2000000   0.3000000   0.4000000), wk =   0.0960000
        k(   43) = (   0.2000000   0.3000000  -0.5000000), wk =   0.0480000
        k(   44) = (   0.2000000   0.4000000   0.4000000), wk =   0.0480000
        k(   45) = (   0.2000000   0.4000000  -0.5000000), wk =   0.0480000
        k(   46) = (   0.2000000  -0.5000000  -0.5000000), wk =   0.0120000
        k(   47) = (   0.3000000   0.3000000   0.3000000), wk =   0.0160000
        k(   48) = (   0.3000000   0.3000000   0.4000000), wk =   0.0480000
        k(   49) = (   0.3000000   0.3000000  -0.5000000), wk =   0.0240000
        k(   50) = (   0.3000000   0.4000000   0.4000000), wk =   0.0480000
        k(   51) = (   0.3000000   0.4000000  -0.5000000), wk =   0.0480000
        k(   52) = (   0.3000000  -0.5000000  -0.5000000), wk =   0.0120000
        k(   53) = (   0.4000000   0.4000000   0.4000000), wk =   0.0160000
        k(   54) = (   0.4000000   0.4000000  -0.5000000), wk =   0.0240000
        k(   55) = (   0.4000000  -0.5000000  -0.5000000), wk =   0.0120000
        k(   56) = (  -0.5000000  -0.5000000  -0.5000000), wk =   0.0020000

     Dense  grid:    31439 G-vectors     FFT dimensions: (  40,  40,  40)

     Smooth grid:    11067 G-vectors     FFT dimensions: (  27,  27,  27)

     Estimated max dynamical RAM per process >      35.38 MB

     Estimated total dynamical RAM >     141.50 MB

     Check: negative core charge=   -0.000007

     Initial potential from superposition of free atoms

     starting charge      13.9951, renormalised to      14.0000
     Starting wfcs are   14 randomized atomic wfcs
     Checking if some PAW data can be deallocated... 

     total cpu time spent up to now is      139.0 secs

     per-process dynamical memory:    44.2 Mb

     Self-consistent Calculation

     iteration #  1     ecut=    50.00 Ry     beta= 0.70
     Davidson diagonalization with overlap
     ethr =  1.00E-02,  avg # of iterations =  2.7

     Threshold (ethr) on eigenvalues was too large:
     Diagonalizing with lowered threshold

     Davidson diagonalization with overlap
     ethr =  3.42E-05,  avg # of iterations =  9.6

     total cpu time spent up to now is      891.7 secs

     total energy              =    -196.51246276 Ry
     estimated scf accuracy    <       0.01541752 Ry

     iteration #  2     ecut=    50.00 Ry     beta= 0.70
     Davidson diagonalization with overlap
     ethr =  1.10E-04,  avg # of iterations =  2.8

     total cpu time spent up to now is     1132.0 secs

     total energy              =    -196.51425243 Ry
     estimated scf accuracy    <       0.00206155 Ry

     iteration #  3     ecut=    50.00 Ry     beta= 0.70
     Davidson diagonalization with overlap
     ethr =  1.47E-05,  avg # of iterations =  4.3

     total cpu time spent up to now is     1427.8 secs

     total energy              =    -196.51500998 Ry
     estimated scf accuracy    <       0.00008243 Ry

     iteration #  4     ecut=    50.00 Ry     beta= 0.70
     Davidson diagonalization with overlap
     ethr =  5.89E-07,  avg # of iterations =  7.0

     total cpu time spent up to now is     1781.6 secs

     total energy              =    -196.51508080 Ry
     estimated scf accuracy    <       0.00000269 Ry

     iteration #  5     ecut=    50.00 Ry     beta= 0.70
     Davidson diagonalization with overlap
     c_bands:  1 eigenvalues not converged
     c_bands:  1 eigenvalues not converged
     ethr =  1.92E-08,  avg # of iterations =  6.4

     total cpu time spent up to now is     2088.0 secs

     total energy              =    -196.51508373 Ry
     estimated scf accuracy    <       0.00000026 Ry

     iteration #  6     ecut=    50.00 Ry     beta= 0.70
     Davidson diagonalization with overlap
     ethr =  1.88E-09,  avg # of iterations =  4.0

     total cpu time spent up to now is     2338.7 secs

     End of self-consistent calculation

          k = 0.0000 0.0000 0.0000 (  1357 PWs)   bands (ev):

   -38.2596 -16.8321 -16.8321 -16.8321   2.0214  10.0546  10.0546  13.9486
    13.9487  13.9487  15.1190

          k = 0.0000 0.0000 0.1000 (  1362 PWs)   bands (ev):

   -38.2573 -16.8582 -16.8299 -16.8299   2.1786   9.9193  10.1370  13.4758
    13.4760  13.9737  14.7346

          k = 0.0000 0.0000 0.2000 (  1366 PWs)   bands (ev):

   -38.2513 -16.9259 -16.8238 -16.8238   2.6393   9.3590  10.3689  12.7978
    12.7979  14.0403  14.3222

          k = 0.0000 0.0000 0.3000 (  1378 PWs)   bands (ev):

   -38.2438 -17.0084 -16.8164 -16.8164   3.3726   8.2949  10.6972  12.2482
    12.2482  14.1250  14.4917

          k = 0.0000 0.0000 0.4000 (  1398 PWs)   bands (ev):

   -38.2378 -17.0743 -16.8104 -16.8104   4.3196   7.0162  11.0110  11.8978
    11.8978  14.1956  14.9762

          k = 0.0000 0.0000-0.5000 (  1406 PWs)   bands (ev):

   -38.2355 -17.0994 -16.8081 -16.8081   5.1069   6.0987  11.1470  11.7778
    11.7778  14.2231  15.2371

          k = 0.0000 0.1000 0.1000 (  1365 PWs)   bands (ev):

   -38.2550 -16.8577 -16.8538 -16.8276   2.3333   9.9300  10.0897  13.0113
    13.3224  13.8029  15.0432

          k = 0.0000 0.1000 0.2000 (  1377 PWs)   bands (ev):

   -38.2490 -16.9231 -16.8491 -16.8216   2.7862   9.4450  10.2660  12.4139
    12.8051  13.7937  14.6468

          k = 0.0000 0.1000 0.3000 (  1380 PWs)   bands (ev):

   -38.2416 -17.0049 -16.8411 -16.8141   3.5056   8.3926  10.5933  12.0073
    12.2958  13.8839  14.6361

          k = 0.0000 0.1000 0.4000 (  1387 PWs)   bands (ev):

   -38.2356 -17.0704 -16.8346 -16.8081   4.4286   7.1347  10.9547  11.6702
    11.9580  13.9698  15.0013

          k = 0.0000 0.1000-0.5000 (  1392 PWs)   bands (ev):

   -38.2333 -17.0953 -16.8321 -16.8057   5.1682   6.2647  11.2008  11.4457
    11.8409  14.0041  15.2211

          k = 0.0000 0.2000 0.2000 (  1378 PWs)   bands (ev):

   -38.2431 -16.9202 -16.9102 -16.8156   3.2149   9.6406   9.7723  11.9693
    12.7258  13.4370  14.9230

          k = 0.0000 0.2000 0.3000 (  1377 PWs)   bands (ev):

   -38.2358 -16.9960 -16.9053 -16.8081   3.8899   8.6617  10.0533  11.7596
    12.4148  13.3919  14.8491

          k = 0.0000 0.2000 0.4000 (  1379 PWs)   bands (ev):

   -38.2299 -17.0600 -16.8978 -16.8021   4.7345   7.4786  10.4496  11.4945
    12.1240  13.4760  15.0217

          k = 0.0000 0.2000-0.5000 (  1388 PWs)   bands (ev):

   -38.2276 -17.0844 -16.8949 -16.7998   5.3423   6.7437  10.6973  11.2845
    12.0163  13.5188  15.1608

          k = 0.0000 0.3000 0.3000 (  1380 PWs)   bands (ev):

   -38.2286 -16.9892 -16.9794 -16.8007   4.4806   8.8337   9.3341  11.6455
    12.4881  13.0132  14.9104

          k = 0.0000 0.3000 0.4000 (  1381 PWs)   bands (ev):

   -38.2227 -17.0473 -16.9749 -16.7947   5.1745   7.9993   9.6433  11.3727
    12.3476  12.9879  14.9927

          k = 0.0000 0.3000-0.5000 (  1380 PWs)   bands (ev):

   -38.2205 -17.0710 -16.9715 -16.7924   5.5944   7.4813   9.8944  11.1578
    12.2578  13.0298  15.0690

          k = 0.0000 0.4000 0.4000 (  1392 PWs)   bands (ev):

   -38.2170 -17.0387 -17.0350 -16.7888   5.6267   8.4514   9.1138  10.9593
    12.5131  12.6909  15.0124

          k = 0.0000 0.4000-0.5000 (  1374 PWs)   bands (ev):

   -38.2148 -17.0601 -17.0328 -16.7864   5.8459   8.3786   9.2758  10.6068
    12.4795  12.6914  15.0537

          k = 0.0000-0.5000-0.5000 (  1372 PWs)   bands (ev):

   -38.2126 -17.0560 -17.0560 -16.7842   5.9603   9.0347   9.0347  10.0363
    12.5722  12.5722  15.0819

          k = 0.1000 0.1000 0.1000 (  1376 PWs)   bands (ev):

   -38.2527 -16.8571 -16.8514 -16.8514   2.4854  10.0039  10.0039  12.6957
    13.3387  13.3387  15.5762

          k = 0.1000 0.1000 0.2000 (  1373 PWs)   bands (ev):

   -38.2468 -16.9203 -16.8482 -16.8451   2.9306   9.5228  10.2134  12.2339
    12.6417  13.4516  15.0146

          k = 0.1000 0.1000 0.3000 (  1377 PWs)   bands (ev):

   -38.2394 -17.0015 -16.8401 -16.8373   3.6363   8.4894  10.5200  12.0401
    12.0569  13.5981  14.8277

          k = 0.1000 0.1000 0.4000 (  1379 PWs)   bands (ev):

   -38.2334 -17.0664 -16.8335 -16.8309   4.5360   7.2533  10.8635  11.5782
    11.9670  13.7085  15.0562

          k = 0.1000 0.1000-0.5000 (  1380 PWs)   bands (ev):

   -38.2311 -17.0911 -16.8309 -16.8285   5.2335   6.4253  11.1498  11.2686
    11.9246  13.7507  15.2311

          k = 0.1000 0.2000 0.2000 (  1381 PWs)   bands (ev):

   -38.2409 -16.9174 -16.9076 -16.8402   3.3520   9.6778   9.8391  11.8639
    12.4799  13.0694  15.3504

          k = 0.1000 0.2000 0.3000 (  1380 PWs)   bands (ev):

   -38.2336 -16.9927 -16.9027 -16.8323   4.0143   8.7535  10.0514  11.8104
    12.1154  13.1016  15.1117

          k = 0.1000 0.2000 0.4000 (  1377 PWs)   bands (ev):

   -38.2277 -17.0563 -16.8951 -16.8259   4.8384   7.5935  10.3427  11.5469
    12.0964  13.1921  15.1300

          k = 0.1000 0.2000-0.5000 (  1390 PWs)   bands (ev):

   -38.2254 -17.0806 -16.8923 -16.8235   5.4187   6.8857  10.4851  11.3898
    12.1149  13.2306  15.2186

          k = 0.1000 0.3000 0.3000 (  1370 PWs)   bands (ev):

   -38.2264 -16.9859 -16.9763 -16.8244   4.5951   8.9531   9.3072  11.7329
    12.1586  12.8582  15.1636

          k = 0.1000 0.3000 0.4000 (  1380 PWs)   bands (ev):

   -38.2206 -17.0438 -16.9719 -16.8181   5.2769   8.0972   9.5692  11.4394
    12.3096  12.8388  15.1276

          k = 0.1000 0.3000-0.5000 (  1380 PWs)   bands (ev):

   -38.2184 -17.0674 -16.9685 -16.8157   5.6880   7.5836   9.7465  11.2741
    12.3698  12.8471  15.1539

          k = 0.1000 0.4000 0.4000 (  1385 PWs)   bands (ev):

   -38.2148 -17.0352 -17.0316 -16.8119   5.7340   8.5168   9.0265  11.0209
    12.5271  12.7479  15.0924

          k = 0.1000 0.4000-0.5000 (  1382 PWs)   bands (ev):

   -38.2126 -17.0567 -17.0295 -16.8095   5.9593   8.3996   9.1580  10.7285
    12.6104  12.7380  15.0955

          k = 0.1000-0.5000-0.5000 (  1392 PWs)   bands (ev):

   -38.2104 -17.0527 -17.0527 -16.8072   6.0839   8.9231   8.9231  10.2690
    12.7144  12.7144  15.0897

          k = 0.2000 0.2000 0.2000 (  1385 PWs)   bands (ev):

   -38.2351 -16.9136 -16.9005 -16.9005   3.7508   9.7735   9.7735  11.4115
    12.4793  12.4793  16.1250

          k = 0.2000 0.2000 0.3000 (  1387 PWs)   bands (ev):

   -38.2278 -16.9841 -16.8990 -16.8918   4.3736   8.9798   9.8839  11.5405
    12.0065  12.6647  15.5659

          k = 0.2000 0.2000 0.4000 (  1384 PWs)   bands (ev):

   -38.2220 -17.0466 -16.8914 -16.8847   5.1339   7.9073   9.9589  11.7335
    12.0284  12.7412  15.3140

          k = 0.2000 0.2000-0.5000 (  1382 PWs)   bands (ev):

   -38.2197 -17.0704 -16.8884 -16.8820   5.6368   7.2811   9.9816  11.6506
    12.3443  12.6634  15.2889

          k = 0.2000 0.3000 0.3000 (  1389 PWs)   bands (ev):

   -38.2207 -16.9774 -16.9684 -16.8863   4.9256   9.1988   9.2263  11.4850
    12.0255  12.5926  15.7294

          k = 0.2000 0.3000 0.4000 (  1392 PWs)   bands (ev):

   -38.2149 -17.0346 -16.9640 -16.8792   5.5716   8.3236   9.3510  11.6164
    12.1836  12.7073  15.4035

          k = 0.2000 0.3000-0.5000 (  1382 PWs)   bands (ev):

   -38.2127 -17.0578 -16.9606 -16.8764   5.9571   7.8389   9.3879  11.6292
    12.4898  12.6350  15.2933

          k = 0.2000 0.4000 0.4000 (  1396 PWs)   bands (ev):

   -38.2092 -17.0263 -17.0230 -16.8722   6.0446   8.6130   8.8091  11.2961
    12.5932  12.8958  15.0422

          k = 0.2000 0.4000-0.5000 (  1388 PWs)   bands (ev):

   -38.2070 -17.0476 -17.0208 -16.8695   6.2890   8.3945   8.8768  11.1760
    12.8685  12.9291  14.7715

          k = 0.2000-0.5000-0.5000 (  1400 PWs)   bands (ev):

   -38.2048 -17.0438 -17.0438 -16.8669   6.4477   8.6572   8.6572  10.9430
    13.0811  13.0812  14.4640

          k = 0.3000 0.3000 0.3000 (  1385 PWs)   bands (ev):

   -38.2136 -16.9699 -16.9586 -16.9586   5.4313   9.1085   9.1085  11.2757
    12.4127  12.4128  15.3240

          k = 0.3000 0.3000 0.4000 (  1392 PWs)   bands (ev):

   -38.2079 -17.0231 -16.9572 -16.9506   6.0174   8.5105   9.0011  11.7366
    12.3393  12.7941  14.6279

          k = 0.3000 0.3000-0.5000 (  1396 PWs)   bands (ev):

   -38.2057 -17.0459 -16.9540 -16.9476   6.3593   8.1188   8.9578  12.1079
    12.3241  12.9222  14.3406

          k = 0.3000 0.4000 0.4000 (  1384 PWs)   bands (ev):

   -38.2023 -17.0152 -17.0122 -16.9458   6.5177   8.5594   8.5692  11.8899
    12.7326  13.0781  13.7877

          k = 0.3000 0.4000-0.5000 (  1398 PWs)   bands (ev):

   -38.2001 -17.0363 -17.0102 -16.9428   6.7941   8.3058   8.5618  12.0181
    13.0168  13.0491  13.6354

          k = 0.3000-0.5000-0.5000 (  1384 PWs)   bands (ev):

   -38.1979 -17.0326 -17.0326 -16.9398   7.0198   8.3663   8.3663  11.9828
    12.8864  13.5507  13.5509

          k = 0.4000 0.4000 0.4000 (  1385 PWs)   bands (ev):

   -38.1966 -17.0074 -17.0035 -17.0035   7.0536   8.3697   8.3697  12.2154
    13.0916  13.2272  13.2272

          k = 0.4000 0.4000-0.5000 (  1390 PWs)   bands (ev):

   -38.1945 -17.0271 -17.0027 -17.0002   7.3641   8.1985   8.2998  12.0302
    13.0561  13.2848  13.8334

          k = 0.4000-0.5000-0.5000 (  1388 PWs)   bands (ev):

   -38.1923 -17.0236 -17.0236 -16.9981   7.6924   8.1525   8.1525  11.5653
    13.2362  13.9772  15.1557

          k =-0.5000-0.5000-0.5000 (  1376 PWs)   bands (ev):

   -38.1902 -17.0201 -17.0201 -17.0201   8.0752   8.0752   8.0752  10.9609
    14.1616  14.1616  14.1617

     the Fermi energy is    10.8978 ev

!    total energy              =    -196.51508381 Ry
     total all-electron energy =     -2014.146647 Ry
     estimated scf accuracy    <          6.8E-09 Ry
     smearing contrib. (-TS)   =       0.00023504 Ry
     internal energy E=F+TS    =    -196.51531885 Ry

     The total energy is F=E-TS. E is the sum of the following terms:
     one-electron contribution =     -35.96732393 Ry
     hartree contribution      =      23.33062426 Ry
     xc contribution           =     -20.25384383 Ry
     ewald contribution        =     -68.67522569 Ry
     one-center paw contrib.   =     -94.94954966 Ry

     convergence has been achieved in   6 iterations

     Forces acting on atoms (cartesian axes, Ry/au):

     atom    1 type  1   force =     0.00000000    0.00000000    0.00000000
     atom    2 type  2   force =     0.00000000    0.00000000    0.00000000

     Total force =     0.000000     Total SCF correction =     0.000000


     Computing stress (Cartesian axis) and pressure

          total   stress  (Ry/bohr**3)                   (kbar)     P=      109.93
   0.00074726   0.00000000   0.00000000          109.93        0.00        0.00
   0.00000000   0.00074726   0.00000000            0.00      109.93        0.00
   0.00000000   0.00000000   0.00074726            0.00        0.00      109.93


     Writing all to output data dir ./tmp_3.250/scal_3.250.save/ :
     XML data file, charge density, pseudopotentials, collected wavefunctions

     init_run     :    816.61s CPU    138.89s WALL (       1 calls)
     electrons    :  12888.78s CPU   2199.71s WALL (       1 calls)
     forces       :     26.96s CPU      4.46s WALL (       1 calls)
     stress       :      6.40s CPU      1.22s WALL (       1 calls)

     Called by init_run:
     wfcinit      :    542.91s CPU     93.01s WALL (       1 calls)
     potinit      :    208.43s CPU     33.78s WALL (       1 calls)
     hinit0       :     64.88s CPU     11.99s WALL (       1 calls)

     Called by electrons:
     c_bands      :  11122.67s CPU   1899.33s WALL (       7 calls)
     sum_band     :   1716.86s CPU    292.20s WALL (       7 calls)
     v_of_rho     :     19.98s CPU      3.26s WALL (       7 calls)
     newd         :      2.49s CPU      0.52s WALL (       7 calls)
     PAW_pot      :     27.06s CPU      4.49s WALL (       7 calls)
     mix_rho      :      3.92s CPU      0.63s WALL (       7 calls)

     Called by c_bands:
     init_us_2    :      0.50s CPU      0.11s WALL (     952 calls)
     cegterg      :  11121.68s CPU   1899.04s WALL (     392 calls)

     Called by *egterg:
     cdiaghg      :      6.71s CPU      1.70s WALL (    2403 calls)
     h_psi        :  10830.32s CPU   1846.61s WALL (    2515 calls)
     s_psi        :      5.15s CPU      0.44s WALL (    2515 calls)
     g_psi        :      0.20s CPU      0.02s WALL (    2067 calls)

     Called by h_psi:
     h_psi:calbec :    107.44s CPU     20.27s WALL (    2515 calls)
     vloc_psi     :  10413.28s CPU   1775.34s WALL (    2515 calls)
                                        0.00s GPU  (    2515 calls)
     add_vuspsi   :      1.40s CPU      0.41s WALL (    2515 calls)

     General routines
     calbec       :    124.73s CPU     24.18s WALL (    3859 calls)
     fft          :     91.97s CPU     16.33s WALL (     115 calls)
     ffts         :    204.14s CPU     33.07s WALL (      14 calls)
     fftw         :   9611.68s CPU   1650.50s WALL (   35324 calls)
     interpolate  :    203.98s CPU     33.05s WALL (       7 calls)

     Parallel routines

     PWSCF        :      3h49m CPU  39m 6.81s WALL


   This run was terminated on:  18:49:48   6Sep2026            

=------------------------------------------------------------------------------=
   JOB DONE.
=------------------------------------------------------------------------------=
