
     Program PWSCF v.7.5 starts on  6Sep2026 at 23:24:20 

     This program is part of the open-source Quantum ESPRESSO suite
     for quantum simulation of materials; please cite
         "P. Giannozzi et al., J. Phys.:Condens. Matter 21 395502 (2009);
         "P. Giannozzi et al., J. Phys.:Condens. Matter 29 465901 (2017);
         "P. Giannozzi et al., J. Chem. Phys. 152 154105 (2020);
          URL http://www.quantum-espresso.org", 
     in publications or presentations arising from this work. More details at
     http://www.quantum-espresso.org/quote

     Parallel version (MPI & OpenMP), running on      96 processor cores
     Number of MPI processes:                 4
     Threads/MPI process:                    24

     MPI processes distributed on     1 nodes
     13060 MiB available memory on the printing compute node when the environment starts

     Waiting for input...
     Reading input from standard input
Warning: card &CELL ignored

     Current dimensions of program PWSCF are:
     Max number of different atomic species (ntypx) = 10
     Max number of k-points (npk) =  40000
     Max angular momentum in pseudopotentials (lmaxx) =  4
     file Sc.pbe-spn-kjpaw_psl.1.0.0.UPF: wavefunction(s)  3S 3P 3D renormalized
     file Al.pbe-n-kjpaw_psl.1.0.0.UPF: wavefunction(s)  3S 3P renormalized
     Message from routine setup:
     using ibrav=0 with symmetry is DISCOURAGED, use correct ibrav instead

     R & G space division:  proc/nbgrp/npool/nimage =       4
     Subspace diagonalization in iterative solution of the eigenvalue problem:
     a serial algorithm will be used


     Parallelization info
     --------------------
     sticks:   dense  smooth     PW     G-vecs:    dense   smooth      PW
     Min         347     173     55                 9781     3451     617
     Max         348     175     56                 9784     3452     618
     Sum        1389     697    221                39127    13805    2469

     Using Slab Decomposition



     bravais-lattice index     =            0
     lattice parameter (alat)  =       6.6140  a.u.
     unit-cell volume          =     289.3348 (a.u.)^3
     number of atoms/cell      =            2
     number of atomic types    =            2
     number of electrons       =        14.00
     number of Kohn-Sham states=           11
     kinetic-energy cutoff     =      50.0000  Ry
     charge density cutoff     =     400.0000  Ry
     scf convergence threshold =      1.0E-08
     mixing beta               =       0.7000
     number of iterations used =            8  plain     mixing
     Exchange-correlation= SLA  PW   PBX  PBC
                           (   1   4   3   4   0   0   0)

     celldm(1)=   6.614041  celldm(2)=   0.000000  celldm(3)=   0.000000
     celldm(4)=   0.000000  celldm(5)=   0.000000  celldm(6)=   0.000000

     crystal axes: (cart. coord. in units of alat)
               a(1) = (   1.000000   0.000000   0.000000 )  
               a(2) = (   0.000000   1.000000   0.000000 )  
               a(3) = (   0.000000   0.000000   1.000000 )  

     reciprocal axes: (cart. coord. in units 2 pi/alat)
               b(1) = (  1.000000  0.000000  0.000000 )  
               b(2) = (  0.000000  1.000000  0.000000 )  
               b(3) = (  0.000000  0.000000  1.000000 )  


     PseudoPot. # 1 for Sc read from file:
     /home/jdmin2003/qe-work/pseudo/Sc.pbe-spn-kjpaw_psl.1.0.0.UPF
     MD5 check sum: d5ac433e587a0148d610ca85a1be5559
     Pseudo is Projector augmented-wave + core cor, Zval = 11.0
     Generated using &quot;atomic&quot; code by A. Dal Corso  v.6.2.2
     Shape of augmentation charge: PSQ
     Using radial grid of 1173 points,  6 beta functions with: 
                l(1) =   0
                l(2) =   0
                l(3) =   1
                l(4) =   1
                l(5) =   2
                l(6) =   2
     Q(r) pseudized with 0 coefficients 


     PseudoPot. # 2 for Al read from file:
     /home/jdmin2003/qe-work/pseudo/Al.pbe-n-kjpaw_psl.1.0.0.UPF
     MD5 check sum: 502b6b27b9c6270cab5dd1084b96fa6d
     Pseudo is Projector augmented-wave + core cor, Zval =  3.0
     Generated using &quot;atomic&quot; code by A. Dal Corso  v.6.3
     Shape of augmentation charge: PSQ
     Using radial grid of 1135 points,  6 beta functions with: 
                l(1) =   0
                l(2) =   0
                l(3) =   1
                l(4) =   1
                l(5) =   2
                l(6) =   2
     Q(r) pseudized with 0 coefficients 


     atomic species   valence    mass     pseudopotential
     Sc               11.00    44.95600     Sc( 1.00)
     Al                3.00    26.98200     Al( 1.00)

     48 Sym. Ops., with inversion, found



   Cartesian axes

     site n.     atom                  positions (alat units)
         1        Sc     tau(   1) = (   0.0000000   0.0000000   0.0000000  )
         2        Al     tau(   2) = (   0.5000000   0.5000000   0.5000000  )

     number of k points=    56  Marzari-Vanderbilt smearing, width (Ry)=  0.0200
                       cart. coord. in units 2pi/alat
        k(    1) = (   0.0000000   0.0000000   0.0000000), wk =   0.0020000
        k(    2) = (   0.0000000   0.0000000   0.1000000), wk =   0.0120000
        k(    3) = (   0.0000000   0.0000000   0.2000000), wk =   0.0120000
        k(    4) = (   0.0000000   0.0000000   0.3000000), wk =   0.0120000
        k(    5) = (   0.0000000   0.0000000   0.4000000), wk =   0.0120000
        k(    6) = (   0.0000000   0.0000000  -0.5000000), wk =   0.0060000
        k(    7) = (   0.0000000   0.1000000   0.1000000), wk =   0.0240000
        k(    8) = (   0.0000000   0.1000000   0.2000000), wk =   0.0480000
        k(    9) = (   0.0000000   0.1000000   0.3000000), wk =   0.0480000
        k(   10) = (   0.0000000   0.1000000   0.4000000), wk =   0.0480000
        k(   11) = (   0.0000000   0.1000000  -0.5000000), wk =   0.0240000
        k(   12) = (   0.0000000   0.2000000   0.2000000), wk =   0.0240000
        k(   13) = (   0.0000000   0.2000000   0.3000000), wk =   0.0480000
        k(   14) = (   0.0000000   0.2000000   0.4000000), wk =   0.0480000
        k(   15) = (   0.0000000   0.2000000  -0.5000000), wk =   0.0240000
        k(   16) = (   0.0000000   0.3000000   0.3000000), wk =   0.0240000
        k(   17) = (   0.0000000   0.3000000   0.4000000), wk =   0.0480000
        k(   18) = (   0.0000000   0.3000000  -0.5000000), wk =   0.0240000
        k(   19) = (   0.0000000   0.4000000   0.4000000), wk =   0.0240000
        k(   20) = (   0.0000000   0.4000000  -0.5000000), wk =   0.0240000
        k(   21) = (   0.0000000  -0.5000000  -0.5000000), wk =   0.0060000
        k(   22) = (   0.1000000   0.1000000   0.1000000), wk =   0.0160000
        k(   23) = (   0.1000000   0.1000000   0.2000000), wk =   0.0480000
        k(   24) = (   0.1000000   0.1000000   0.3000000), wk =   0.0480000
        k(   25) = (   0.1000000   0.1000000   0.4000000), wk =   0.0480000
        k(   26) = (   0.1000000   0.1000000  -0.5000000), wk =   0.0240000
        k(   27) = (   0.1000000   0.2000000   0.2000000), wk =   0.0480000
        k(   28) = (   0.1000000   0.2000000   0.3000000), wk =   0.0960000
        k(   29) = (   0.1000000   0.2000000   0.4000000), wk =   0.0960000
        k(   30) = (   0.1000000   0.2000000  -0.5000000), wk =   0.0480000
        k(   31) = (   0.1000000   0.3000000   0.3000000), wk =   0.0480000
        k(   32) = (   0.1000000   0.3000000   0.4000000), wk =   0.0960000
        k(   33) = (   0.1000000   0.3000000  -0.5000000), wk =   0.0480000
        k(   34) = (   0.1000000   0.4000000   0.4000000), wk =   0.0480000
        k(   35) = (   0.1000000   0.4000000  -0.5000000), wk =   0.0480000
        k(   36) = (   0.1000000  -0.5000000  -0.5000000), wk =   0.0120000
        k(   37) = (   0.2000000   0.2000000   0.2000000), wk =   0.0160000
        k(   38) = (   0.2000000   0.2000000   0.3000000), wk =   0.0480000
        k(   39) = (   0.2000000   0.2000000   0.4000000), wk =   0.0480000
        k(   40) = (   0.2000000   0.2000000  -0.5000000), wk =   0.0240000
        k(   41) = (   0.2000000   0.3000000   0.3000000), wk =   0.0480000
        k(   42) = (   0.2000000   0.3000000   0.4000000), wk =   0.0960000
        k(   43) = (   0.2000000   0.3000000  -0.5000000), wk =   0.0480000
        k(   44) = (   0.2000000   0.4000000   0.4000000), wk =   0.0480000
        k(   45) = (   0.2000000   0.4000000  -0.5000000), wk =   0.0480000
        k(   46) = (   0.2000000  -0.5000000  -0.5000000), wk =   0.0120000
        k(   47) = (   0.3000000   0.3000000   0.3000000), wk =   0.0160000
        k(   48) = (   0.3000000   0.3000000   0.4000000), wk =   0.0480000
        k(   49) = (   0.3000000   0.3000000  -0.5000000), wk =   0.0240000
        k(   50) = (   0.3000000   0.4000000   0.4000000), wk =   0.0480000
        k(   51) = (   0.3000000   0.4000000  -0.5000000), wk =   0.0480000
        k(   52) = (   0.3000000  -0.5000000  -0.5000000), wk =   0.0120000
        k(   53) = (   0.4000000   0.4000000   0.4000000), wk =   0.0160000
        k(   54) = (   0.4000000   0.4000000  -0.5000000), wk =   0.0240000
        k(   55) = (   0.4000000  -0.5000000  -0.5000000), wk =   0.0120000
        k(   56) = (  -0.5000000  -0.5000000  -0.5000000), wk =   0.0020000

     Dense  grid:    39127 G-vectors     FFT dimensions: (  45,  45,  45)

     Smooth grid:    13805 G-vectors     FFT dimensions: (  30,  30,  30)

     Estimated max dynamical RAM per process >      43.57 MB

     Estimated total dynamical RAM >     174.26 MB

     Check: negative core charge=   -0.000007

     Initial potential from superposition of free atoms

     starting charge      13.9951, renormalised to      14.0000
     Starting wfcs are   14 randomized atomic wfcs
     Checking if some PAW data can be deallocated... 

     total cpu time spent up to now is      128.6 secs

     per-process dynamical memory:    49.2 Mb

     Self-consistent Calculation

     iteration #  1     ecut=    50.00 Ry     beta= 0.70
     Davidson diagonalization with overlap
     ethr =  1.00E-02,  avg # of iterations =  2.5

     Threshold (ethr) on eigenvalues was too large:
     Diagonalizing with lowered threshold

     Davidson diagonalization with overlap
     ethr =  5.12E-05,  avg # of iterations =  9.9

     total cpu time spent up to now is      820.1 secs

     total energy              =    -196.51297703 Ry
     estimated scf accuracy    <       0.02041612 Ry

     iteration #  2     ecut=    50.00 Ry     beta= 0.70
     Davidson diagonalization with overlap
     ethr =  1.46E-04,  avg # of iterations =  5.0

     total cpu time spent up to now is     1081.2 secs

     total energy              =    -196.51530964 Ry
     estimated scf accuracy    <       0.00998148 Ry

     iteration #  3     ecut=    50.00 Ry     beta= 0.70
     Davidson diagonalization with overlap
     ethr =  7.13E-05,  avg # of iterations =  3.8

     total cpu time spent up to now is     1303.3 secs

     total energy              =    -196.51809270 Ry
     estimated scf accuracy    <       0.00039539 Ry

     iteration #  4     ecut=    50.00 Ry     beta= 0.70
     Davidson diagonalization with overlap
     c_bands:  1 eigenvalues not converged
     ethr =  2.82E-06,  avg # of iterations =  7.5

     total cpu time spent up to now is     1667.5 secs

     total energy              =    -196.51835061 Ry
     estimated scf accuracy    <       0.00002767 Ry

     iteration #  5     ecut=    50.00 Ry     beta= 0.70
     Davidson diagonalization with overlap
     ethr =  1.98E-07,  avg # of iterations =  5.8

     total cpu time spent up to now is     1946.8 secs

     total energy              =    -196.51836882 Ry
     estimated scf accuracy    <       0.00000197 Ry

     iteration #  6     ecut=    50.00 Ry     beta= 0.70
     Davidson diagonalization with overlap
     ethr =  1.41E-08,  avg # of iterations =  5.9

     total cpu time spent up to now is     2236.5 secs

     total energy              =    -196.51837002 Ry
     estimated scf accuracy    <       0.00000098 Ry

     iteration #  7     ecut=    50.00 Ry     beta= 0.70
     Davidson diagonalization with overlap
     ethr =  7.03E-09,  avg # of iterations =  3.2

     total cpu time spent up to now is     2453.4 secs

     total energy              =    -196.51837022 Ry
     estimated scf accuracy    <       0.00000002 Ry

     iteration #  8     ecut=    50.00 Ry     beta= 0.70
     Davidson diagonalization with overlap
     c_bands:  1 eigenvalues not converged
     c_bands:  1 eigenvalues not converged
     ethr =  1.09E-10,  avg # of iterations = 10.8

     total cpu time spent up to now is     2868.6 secs

     total energy              =    -196.51837030 Ry
     estimated scf accuracy    <       0.00000007 Ry

     iteration #  9     ecut=    50.00 Ry     beta= 0.70
     Davidson diagonalization with overlap
     ethr =  1.09E-10,  avg # of iterations =  2.7

     total cpu time spent up to now is     3075.5 secs

     total energy              =    -196.51837030 Ry
     estimated scf accuracy    <       0.00000003 Ry

     iteration # 10     ecut=    50.00 Ry     beta= 0.70
     Davidson diagonalization with overlap
     ethr =  1.09E-10,  avg # of iterations =  4.7

     total cpu time spent up to now is     3315.5 secs

     End of self-consistent calculation

          k = 0.0000 0.0000 0.0000 (  1743 PWs)   bands (ev):

   -41.4354 -20.0084 -20.0084 -20.0084   0.3534   7.8830   7.8830  10.7484
    10.7484  10.7484  11.6558

          k = 0.0000 0.0000 0.1000 (  1751 PWs)   bands (ev):

   -41.4346 -20.0196 -20.0075 -20.0075   0.4820   7.7206   7.9454  10.3766
    10.3767  10.7656  11.2748

          k = 0.0000 0.0000 0.2000 (  1747 PWs)   bands (ev):

   -41.4325 -20.0485 -20.0050 -20.0050   0.8610   7.0858   8.1191   9.8536
     9.8536  10.8112  10.9111

          k = 0.0000 0.0000 0.3000 (  1743 PWs)   bands (ev):

   -41.4298 -20.0841 -20.0018 -20.0018   1.4684   6.0044   8.3593   9.4346
     9.4346  10.8688  11.0701

          k = 0.0000 0.0000 0.4000 (  1731 PWs)   bands (ev):

   -41.4277 -20.1126 -19.9992 -19.9992   2.2468   4.8282   8.5813   9.1692
     9.1692  10.9165  11.4528

          k = 0.0000 0.0000-0.5000 (  1750 PWs)   bands (ev):

   -41.4269 -20.1236 -19.9983 -19.9983   2.8257   4.1020   8.6745   9.0784
     9.0784  10.9350  11.6492

          k = 0.0000 0.1000 0.1000 (  1749 PWs)   bands (ev):

   -41.4338 -20.0191 -20.0180 -20.0066   0.6090   7.7142   7.8733   9.9825
    10.2488  10.6485  11.5915

          k = 0.0000 0.1000 0.2000 (  1738 PWs)   bands (ev):

   -41.4316 -20.0473 -20.0158 -20.0040   0.9830   7.1597   7.9955   9.5350
     9.8569  10.6409  11.2019

          k = 0.0000 0.1000 0.3000 (  1735 PWs)   bands (ev):

   -41.4290 -20.0827 -20.0125 -20.0008   1.5812   6.0940   8.2423   9.2548
     9.4746  10.7041  11.1903

          k = 0.0000 0.1000 0.4000 (  1735 PWs)   bands (ev):

   -41.4269 -20.1111 -20.0098 -19.9983   2.3431   4.9372   8.5112   9.0075
     9.2213  10.7644  11.4761

          k = 0.0000 0.1000-0.5000 (  1732 PWs)   bands (ev):

   -41.4261 -20.1219 -20.0088 -19.9973   2.8966   4.2379   8.7096   8.8236
     9.1336  10.7885  11.6418

          k = 0.0000 0.2000 0.2000 (  1749 PWs)   bands (ev):

   -41.4295 -20.0458 -20.0429 -20.0015   1.3413   7.3270   7.4365   9.2243
     9.7945  10.3940  11.4923

          k = 0.0000 0.2000 0.3000 (  1735 PWs)   bands (ev):

   -41.4269 -20.0793 -20.0404 -19.9983   1.9105   6.3445   7.6770   9.0966
     9.5742  10.3600  11.3937

          k = 0.0000 0.2000 0.4000 (  1735 PWs)   bands (ev):

   -41.4248 -20.1073 -20.0375 -19.9958   2.6200   5.2535   8.0044   8.9018
     9.3650  10.4215  11.5111

          k = 0.0000 0.2000-0.5000 (  1724 PWs)   bands (ev):

   -41.4240 -20.1179 -20.0363 -19.9948   3.1007   4.6334   8.1956   8.7508
     9.2867  10.4534  11.6117

          k = 0.0000 0.3000 0.3000 (  1728 PWs)   bands (ev):

   -41.4243 -20.0763 -20.0734 -19.9952   2.4244   6.5433   6.9256   9.0126
     9.6425  10.0929  11.4690

          k = 0.0000 0.3000 0.4000 (  1718 PWs)   bands (ev):

   -41.4222 -20.1025 -20.0713 -19.9926   3.0366   5.7348   7.2186   8.7811
     9.5584  10.0731  11.5113

          k = 0.0000 0.3000-0.5000 (  1714 PWs)   bands (ev):

   -41.4214 -20.1130 -20.0700 -19.9916   3.4062   5.2513   7.4470   8.6003
     9.4977  10.1053  11.5594

          k = 0.0000 0.4000 0.4000 (  1712 PWs)   bands (ev):

   -41.4201 -20.0992 -20.0981 -19.9901   3.4925   6.1564   6.6441   8.4017
     9.7048   9.8596  11.5202

          k = 0.0000 0.4000-0.5000 (  1700 PWs)   bands (ev):

   -41.4194 -20.1090 -20.0971 -19.9891   3.7286   6.0101   6.8114   8.0886
     9.6916   9.8599  11.5433

          k = 0.0000-0.5000-0.5000 (  1692 PWs)   bands (ev):

   -41.4186 -20.1075 -20.1075 -19.9881   3.8843   6.5445   6.5445   7.6068
     9.7728   9.7728  11.5571

          k = 0.1000 0.1000 0.1000 (  1746 PWs)   bands (ev):

   -41.4330 -20.0186 -20.0170 -20.0170   0.7344   7.7718   7.7718   9.6861
    10.2914  10.2914  12.0181

          k = 0.1000 0.1000 0.2000 (  1734 PWs)   bands (ev):

   -41.4308 -20.0462 -20.0153 -20.0143   1.1035   7.2280   7.9340   9.3353
     9.7637  10.3898  11.4950

          k = 0.1000 0.1000 0.3000 (  1741 PWs)   bands (ev):

   -41.4282 -20.0814 -20.0120 -20.0111   1.6928   6.1827   8.1680   9.2496
     9.3125  10.5033  11.3356

          k = 0.1000 0.1000 0.4000 (  1731 PWs)   bands (ev):

   -41.4261 -20.1097 -20.0092 -20.0084   2.4389   5.0452   8.4246   8.9691
     9.2022  10.5846  11.5154

          k = 0.1000 0.1000-0.5000 (  1728 PWs)   bands (ev):

   -41.4253 -20.1204 -20.0082 -20.0074   2.9695   4.3701   8.6196   8.7564
     9.1747  10.6156  11.6495

          k = 0.1000 0.2000 0.2000 (  1734 PWs)   bands (ev):

   -41.4287 -20.0446 -20.0417 -20.0121   1.4573   7.3623   7.5047   9.0598
     9.6407  10.1205  11.8194

          k = 0.1000 0.2000 0.3000 (  1732 PWs)   bands (ev):

   -41.4261 -20.0780 -20.0393 -20.0089   2.0185   6.4296   7.6902   9.1056
     9.3375  10.1490  11.5783

          k = 0.1000 0.2000 0.4000 (  1721 PWs)   bands (ev):

   -41.4240 -20.1059 -20.0363 -20.0062   2.7148   5.3566   7.9448   8.9528
     9.3031  10.2169  11.5810

          k = 0.1000 0.2000-0.5000 (  1728 PWs)   bands (ev):

   -41.4232 -20.1165 -20.0352 -20.0052   3.1798   4.7531   8.0686   8.8301
     9.3249  10.2466  11.6477

          k = 0.1000 0.3000 0.3000 (  1735 PWs)   bands (ev):

   -41.4235 -20.0751 -20.0723 -20.0056   2.5268   6.6537   6.9246   9.0873
     9.3510   9.9752  11.6557

          k = 0.1000 0.3000 0.4000 (  1724 PWs)   bands (ev):

   -41.4214 -20.1012 -20.0702 -20.0030   3.1317   5.8246   7.1959   8.8412
     9.4908   9.9587  11.6031

          k = 0.1000 0.3000-0.5000 (  1714 PWs)   bands (ev):

   -41.4206 -20.1116 -20.0688 -20.0020   3.4958   5.3445   7.3752   8.6950
     9.5479   9.9640  11.6135

          k = 0.1000 0.4000 0.4000 (  1716 PWs)   bands (ev):

   -41.4194 -20.0979 -20.0968 -20.0003   3.5915   6.2291   6.6116   8.4646
     9.6860   9.8883  11.5777

          k = 0.1000 0.4000-0.5000 (  1710 PWs)   bands (ev):

   -41.4186 -20.1077 -20.0959 -19.9993   3.8323   6.0485   6.7635   8.1970
     9.7641   9.8786  11.5721

          k = 0.1000-0.5000-0.5000 (  1716 PWs)   bands (ev):

   -41.4178 -20.1062 -20.1062 -19.9984   3.9969   6.4997   6.4997   7.7897
     9.8592   9.8592  11.5624

          k = 0.2000 0.2000 0.2000 (  1728 PWs)   bands (ev):

   -41.4266 -20.0428 -20.0388 -20.0388   1.7973   7.4561   7.4561   8.5748
     9.6795   9.6795  12.3857

          k = 0.2000 0.2000 0.3000 (  1734 PWs)   bands (ev):

   -41.4240 -20.0747 -20.0376 -20.0353   2.3336   6.6516   7.5733   8.7363
     9.3164   9.8246  11.8998

          k = 0.2000 0.2000 0.4000 (  1722 PWs)   bands (ev):

   -41.4219 -20.1022 -20.0345 -20.0324   2.9892   5.6455   7.6668   9.0938
     9.1874   9.8773  11.7042

          k = 0.2000 0.2000-0.5000 (  1728 PWs)   bands (ev):

   -41.4211 -20.1127 -20.0333 -20.0314   3.4090   5.0933   7.7010   9.0215
     9.4561   9.8209  11.6960

          k = 0.2000 0.3000 0.3000 (  1729 PWs)   bands (ev):

   -41.4215 -20.0717 -20.0691 -20.0328   2.8252   6.9130   6.9166   8.7141
     9.3059   9.7641  12.0242

          k = 0.2000 0.3000 0.4000 (  1725 PWs)   bands (ev):

   -41.4194 -20.0977 -20.0670 -20.0299   3.4084   6.0519   7.1061   8.9378
     9.3503   9.8301  11.7081

          k = 0.2000 0.3000-0.5000 (  1726 PWs)   bands (ev):

   -41.4186 -20.1080 -20.0657 -20.0288   3.7568   5.5924   7.1710   8.9759
     9.6713   9.6765  11.6396

          k = 0.2000 0.4000 0.4000 (  1725 PWs)   bands (ev):

   -41.4173 -20.0944 -20.0935 -20.0271   3.8812   6.3841   6.5262   8.6722
     9.6611   9.9715  11.2463

          k = 0.2000 0.4000-0.5000 (  1728 PWs)   bands (ev):

   -41.4165 -20.1042 -20.0926 -20.0260   4.1374   6.1201   6.6394   8.5568
     9.9384   9.9432  11.0211

          k = 0.2000-0.5000-0.5000 (  1724 PWs)   bands (ev):

   -41.4157 -20.1028 -20.1028 -20.0249   4.3319   6.3868   6.3868   8.3227
    10.1008  10.1008  10.7516

          k = 0.3000 0.3000 0.3000 (  1721 PWs)   bands (ev):

   -41.4189 -20.0687 -20.0651 -20.0651   3.2896   6.8958   6.8958   8.4048
     9.6058   9.6058  11.4838

          k = 0.3000 0.3000 0.4000 (  1731 PWs)   bands (ev):

   -41.4169 -20.0933 -20.0641 -20.0620   3.8369   6.2961   6.8697   8.8567
     9.5291   9.8471  10.9427

          k = 0.3000 0.3000-0.5000 (  1718 PWs)   bands (ev):

   -41.4161 -20.1035 -20.0628 -20.0607   4.1592   5.9046   6.8577   9.3280
     9.5094   9.7754  10.7359

          k = 0.3000 0.4000 0.4000 (  1719 PWs)   bands (ev):

   -41.4148 -20.0902 -20.0893 -20.0598   4.3345   6.4211   6.4621   8.9771
     9.6804  10.0892  10.3397

          k = 0.3000 0.4000-0.5000 (  1726 PWs)   bands (ev):

   -41.4140 -20.0999 -20.0884 -20.0587   4.6198   6.1584   6.4798   9.2050
     9.5662  10.0553  10.4349

          k = 0.3000-0.5000-0.5000 (  1732 PWs)   bands (ev):

   -41.4132 -20.0985 -20.0985 -20.0575   4.8772   6.2545   6.2545   9.1536
     9.3884  10.4472  10.4478

          k = 0.4000 0.4000 0.4000 (  1733 PWs)   bands (ev):

   -41.4127 -20.0872 -20.0859 -20.0859   4.8736   6.3367   6.3367   8.7993
     9.9733  10.1951  10.1952

          k = 0.4000 0.4000-0.5000 (  1732 PWs)   bands (ev):

   -41.4120 -20.0963 -20.0854 -20.0846   5.2052   6.1581   6.3047   8.5817
    10.0099  10.2377  10.6709

          k = 0.4000-0.5000-0.5000 (  1708 PWs)   bands (ev):

   -41.4112 -20.0949 -20.0949 -20.0836   5.5873   6.1526   6.1526   8.1368
    10.1713  10.7977  10.7979

          k =-0.5000-0.5000-0.5000 (  1736 PWs)   bands (ev):

   -41.4104 -20.0937 -20.0937 -20.0937   6.1144   6.1144   6.1144   7.4228
    10.9614  10.9618  11.6131

     the Fermi energy is     8.3711 ev

!    total energy              =    -196.51837030 Ry
     total all-electron energy =     -2014.149934 Ry
     estimated scf accuracy    <          2.0E-09 Ry
     smearing contrib. (-TS)   =       0.00031497 Ry
     internal energy E=F+TS    =    -196.51868527 Ry

     The total energy is F=E-TS. E is the sum of the following terms:
     one-electron contribution =     -43.16388920 Ry
     hartree contribution      =      25.33354087 Ry
     xc contribution           =     -19.98977167 Ry
     ewald contribution        =     -63.76985243 Ry
     one-center paw contrib.   =     -94.92871286 Ry

     convergence has been achieved in  10 iterations

     Forces acting on atoms (cartesian axes, Ry/au):

     atom    1 type  1   force =     0.00000000    0.00000000    0.00000000
     atom    2 type  2   force =     0.00000000    0.00000000    0.00000000

     Total force =     0.000000     Total SCF correction =     0.000000


     Computing stress (Cartesian axis) and pressure

          total   stress  (Ry/bohr**3)                   (kbar)     P=      -67.51
  -0.00045896   0.00000000   0.00000000          -67.51        0.00        0.00
   0.00000000  -0.00045896   0.00000000            0.00      -67.51        0.00
   0.00000000   0.00000000  -0.00045896            0.00        0.00      -67.51


     Writing all to output data dir ./tmp_3.500/scal_3.500.save/ :
     XML data file, charge density, pseudopotentials, collected wavefunctions

     init_run     :    770.55s CPU    128.47s WALL (       1 calls)
     electrons    :  18694.35s CPU   3186.97s WALL (       1 calls)
     forces       :     27.24s CPU      4.50s WALL (       1 calls)
     stress       :      6.54s CPU      1.32s WALL (       1 calls)

     Called by init_run:
     wfcinit      :    634.25s CPU    103.35s WALL (       1 calls)
     potinit      :     65.97s CPU     10.48s WALL (       1 calls)
     hinit0       :     68.76s CPU     12.82s WALL (       1 calls)

     Called by electrons:
     c_bands      :  15988.82s CPU   2728.89s WALL (      11 calls)
     sum_band     :   2626.18s CPU    443.20s WALL (      11 calls)
     v_of_rho     :     30.09s CPU      6.64s WALL (      11 calls)
     newd         :      4.84s CPU      2.50s WALL (      11 calls)
     PAW_pot      :     40.48s CPU      6.65s WALL (      11 calls)
     mix_rho      :      6.65s CPU      1.07s WALL (      11 calls)

     Called by c_bands:
     init_us_2    :      0.69s CPU      0.21s WALL (    1400 calls)
     cegterg      :  15986.96s CPU   2728.38s WALL (     616 calls)

     Called by *egterg:
     cdiaghg      :     12.06s CPU      3.05s WALL (    4014 calls)
     h_psi        :  15281.20s CPU   2597.67s WALL (    4126 calls)
     s_psi        :      8.79s CPU      2.42s WALL (    4126 calls)
     g_psi        :      0.46s CPU      0.03s WALL (    3454 calls)

     Called by h_psi:
     h_psi:calbec :    166.11s CPU     31.14s WALL (    4126 calls)
     vloc_psi     :  14628.17s CPU   2480.76s WALL (    4126 calls)
                                        0.00s GPU  (    4126 calls)
     add_vuspsi   :      2.72s CPU      0.81s WALL (    4126 calls)

     General routines
     calbec       :    188.72s CPU     36.77s WALL (    5694 calls)
     fft          :    108.89s CPU     22.60s WALL (     167 calls)
     ffts         :     64.09s CPU     10.13s WALL (      22 calls)
     fftw         :  13703.95s CPU   2330.18s WALL (   51710 calls)
     interpolate  :     63.96s CPU     10.13s WALL (      11 calls)

     Parallel routines

     PWSCF        :      5h25m CPU  55m23.79s WALL


   This run was terminated on:   0:19:43   7Sep2026            

=------------------------------------------------------------------------------=
   JOB DONE.
=------------------------------------------------------------------------------=
