
     Program PWSCF v.7.5 starts on  6Sep2026 at 18:49:48 

     This program is part of the open-source Quantum ESPRESSO suite
     for quantum simulation of materials; please cite
         "P. Giannozzi et al., J. Phys.:Condens. Matter 21 395502 (2009);
         "P. Giannozzi et al., J. Phys.:Condens. Matter 29 465901 (2017);
         "P. Giannozzi et al., J. Chem. Phys. 152 154105 (2020);
          URL http://www.quantum-espresso.org", 
     in publications or presentations arising from this work. More details at
     http://www.quantum-espresso.org/quote

     Parallel version (MPI & OpenMP), running on      96 processor cores
     Number of MPI processes:                 4
     Threads/MPI process:                    24

     MPI processes distributed on     1 nodes
     13154 MiB available memory on the printing compute node when the environment starts

     Waiting for input...
     Reading input from standard input
Warning: card &CELL ignored

     Current dimensions of program PWSCF are:
     Max number of different atomic species (ntypx) = 10
     Max number of k-points (npk) =  40000
     Max angular momentum in pseudopotentials (lmaxx) =  4
     file Sc.pbe-spn-kjpaw_psl.1.0.0.UPF: wavefunction(s)  3S 3P 3D renormalized
     file Al.pbe-n-kjpaw_psl.1.0.0.UPF: wavefunction(s)  3S 3P renormalized
     Message from routine setup:
     using ibrav=0 with symmetry is DISCOURAGED, use correct ibrav instead

     R & G space division:  proc/nbgrp/npool/nimage =       4
     Subspace diagonalization in iterative solution of the eigenvalue problem:
     a serial algorithm will be used


     Parallelization info
     --------------------
     sticks:   dense  smooth     PW     G-vecs:    dense   smooth      PW
     Min         309     154     48                 8198     2908     524
     Max         310     156     49                 8199     2909     527
     Sum        1237     621    193                32795    11633    2103

     Using Slab Decomposition



     bravais-lattice index     =            0
     lattice parameter (alat)  =       6.2361  a.u.
     unit-cell volume          =     242.5149 (a.u.)^3
     number of atoms/cell      =            2
     number of atomic types    =            2
     number of electrons       =        14.00
     number of Kohn-Sham states=           11
     kinetic-energy cutoff     =      50.0000  Ry
     charge density cutoff     =     400.0000  Ry
     scf convergence threshold =      1.0E-08
     mixing beta               =       0.7000
     number of iterations used =            8  plain     mixing
     Exchange-correlation= SLA  PW   PBX  PBC
                           (   1   4   3   4   0   0   0)

     celldm(1)=   6.236096  celldm(2)=   0.000000  celldm(3)=   0.000000
     celldm(4)=   0.000000  celldm(5)=   0.000000  celldm(6)=   0.000000

     crystal axes: (cart. coord. in units of alat)
               a(1) = (   1.000000   0.000000   0.000000 )  
               a(2) = (   0.000000   1.000000   0.000000 )  
               a(3) = (   0.000000   0.000000   1.000000 )  

     reciprocal axes: (cart. coord. in units 2 pi/alat)
               b(1) = (  1.000000  0.000000  0.000000 )  
               b(2) = (  0.000000  1.000000  0.000000 )  
               b(3) = (  0.000000  0.000000  1.000000 )  


     PseudoPot. # 1 for Sc read from file:
     /home/jdmin2003/qe-work/pseudo/Sc.pbe-spn-kjpaw_psl.1.0.0.UPF
     MD5 check sum: d5ac433e587a0148d610ca85a1be5559
     Pseudo is Projector augmented-wave + core cor, Zval = 11.0
     Generated using &quot;atomic&quot; code by A. Dal Corso  v.6.2.2
     Shape of augmentation charge: PSQ
     Using radial grid of 1173 points,  6 beta functions with: 
                l(1) =   0
                l(2) =   0
                l(3) =   1
                l(4) =   1
                l(5) =   2
                l(6) =   2
     Q(r) pseudized with 0 coefficients 


     PseudoPot. # 2 for Al read from file:
     /home/jdmin2003/qe-work/pseudo/Al.pbe-n-kjpaw_psl.1.0.0.UPF
     MD5 check sum: 502b6b27b9c6270cab5dd1084b96fa6d
     Pseudo is Projector augmented-wave + core cor, Zval =  3.0
     Generated using &quot;atomic&quot; code by A. Dal Corso  v.6.3
     Shape of augmentation charge: PSQ
     Using radial grid of 1135 points,  6 beta functions with: 
                l(1) =   0
                l(2) =   0
                l(3) =   1
                l(4) =   1
                l(5) =   2
                l(6) =   2
     Q(r) pseudized with 0 coefficients 


     atomic species   valence    mass     pseudopotential
     Sc               11.00    44.95600     Sc( 1.00)
     Al                3.00    26.98200     Al( 1.00)

     48 Sym. Ops., with inversion, found



   Cartesian axes

     site n.     atom                  positions (alat units)
         1        Sc     tau(   1) = (   0.0000000   0.0000000   0.0000000  )
         2        Al     tau(   2) = (   0.5000000   0.5000000   0.5000000  )

     number of k points=    56  Marzari-Vanderbilt smearing, width (Ry)=  0.0200
                       cart. coord. in units 2pi/alat
        k(    1) = (   0.0000000   0.0000000   0.0000000), wk =   0.0020000
        k(    2) = (   0.0000000   0.0000000   0.1000000), wk =   0.0120000
        k(    3) = (   0.0000000   0.0000000   0.2000000), wk =   0.0120000
        k(    4) = (   0.0000000   0.0000000   0.3000000), wk =   0.0120000
        k(    5) = (   0.0000000   0.0000000   0.4000000), wk =   0.0120000
        k(    6) = (   0.0000000   0.0000000  -0.5000000), wk =   0.0060000
        k(    7) = (   0.0000000   0.1000000   0.1000000), wk =   0.0240000
        k(    8) = (   0.0000000   0.1000000   0.2000000), wk =   0.0480000
        k(    9) = (   0.0000000   0.1000000   0.3000000), wk =   0.0480000
        k(   10) = (   0.0000000   0.1000000   0.4000000), wk =   0.0480000
        k(   11) = (   0.0000000   0.1000000  -0.5000000), wk =   0.0240000
        k(   12) = (   0.0000000   0.2000000   0.2000000), wk =   0.0240000
        k(   13) = (   0.0000000   0.2000000   0.3000000), wk =   0.0480000
        k(   14) = (   0.0000000   0.2000000   0.4000000), wk =   0.0480000
        k(   15) = (   0.0000000   0.2000000  -0.5000000), wk =   0.0240000
        k(   16) = (   0.0000000   0.3000000   0.3000000), wk =   0.0240000
        k(   17) = (   0.0000000   0.3000000   0.4000000), wk =   0.0480000
        k(   18) = (   0.0000000   0.3000000  -0.5000000), wk =   0.0240000
        k(   19) = (   0.0000000   0.4000000   0.4000000), wk =   0.0240000
        k(   20) = (   0.0000000   0.4000000  -0.5000000), wk =   0.0240000
        k(   21) = (   0.0000000  -0.5000000  -0.5000000), wk =   0.0060000
        k(   22) = (   0.1000000   0.1000000   0.1000000), wk =   0.0160000
        k(   23) = (   0.1000000   0.1000000   0.2000000), wk =   0.0480000
        k(   24) = (   0.1000000   0.1000000   0.3000000), wk =   0.0480000
        k(   25) = (   0.1000000   0.1000000   0.4000000), wk =   0.0480000
        k(   26) = (   0.1000000   0.1000000  -0.5000000), wk =   0.0240000
        k(   27) = (   0.1000000   0.2000000   0.2000000), wk =   0.0480000
        k(   28) = (   0.1000000   0.2000000   0.3000000), wk =   0.0960000
        k(   29) = (   0.1000000   0.2000000   0.4000000), wk =   0.0960000
        k(   30) = (   0.1000000   0.2000000  -0.5000000), wk =   0.0480000
        k(   31) = (   0.1000000   0.3000000   0.3000000), wk =   0.0480000
        k(   32) = (   0.1000000   0.3000000   0.4000000), wk =   0.0960000
        k(   33) = (   0.1000000   0.3000000  -0.5000000), wk =   0.0480000
        k(   34) = (   0.1000000   0.4000000   0.4000000), wk =   0.0480000
        k(   35) = (   0.1000000   0.4000000  -0.5000000), wk =   0.0480000
        k(   36) = (   0.1000000  -0.5000000  -0.5000000), wk =   0.0120000
        k(   37) = (   0.2000000   0.2000000   0.2000000), wk =   0.0160000
        k(   38) = (   0.2000000   0.2000000   0.3000000), wk =   0.0480000
        k(   39) = (   0.2000000   0.2000000   0.4000000), wk =   0.0480000
        k(   40) = (   0.2000000   0.2000000  -0.5000000), wk =   0.0240000
        k(   41) = (   0.2000000   0.3000000   0.3000000), wk =   0.0480000
        k(   42) = (   0.2000000   0.3000000   0.4000000), wk =   0.0960000
        k(   43) = (   0.2000000   0.3000000  -0.5000000), wk =   0.0480000
        k(   44) = (   0.2000000   0.4000000   0.4000000), wk =   0.0480000
        k(   45) = (   0.2000000   0.4000000  -0.5000000), wk =   0.0480000
        k(   46) = (   0.2000000  -0.5000000  -0.5000000), wk =   0.0120000
        k(   47) = (   0.3000000   0.3000000   0.3000000), wk =   0.0160000
        k(   48) = (   0.3000000   0.3000000   0.4000000), wk =   0.0480000
        k(   49) = (   0.3000000   0.3000000  -0.5000000), wk =   0.0240000
        k(   50) = (   0.3000000   0.4000000   0.4000000), wk =   0.0480000
        k(   51) = (   0.3000000   0.4000000  -0.5000000), wk =   0.0480000
        k(   52) = (   0.3000000  -0.5000000  -0.5000000), wk =   0.0120000
        k(   53) = (   0.4000000   0.4000000   0.4000000), wk =   0.0160000
        k(   54) = (   0.4000000   0.4000000  -0.5000000), wk =   0.0240000
        k(   55) = (   0.4000000  -0.5000000  -0.5000000), wk =   0.0120000
        k(   56) = (  -0.5000000  -0.5000000  -0.5000000), wk =   0.0020000

     Dense  grid:    32795 G-vectors     FFT dimensions: (  40,  40,  40)

     Smooth grid:    11633 G-vectors     FFT dimensions: (  30,  30,  30)

     Estimated max dynamical RAM per process >      36.74 MB

     Estimated total dynamical RAM >     146.95 MB

     Check: negative core charge=   -0.000007

     Initial potential from superposition of free atoms

     starting charge      13.9951, renormalised to      14.0000
     Starting wfcs are   14 randomized atomic wfcs
     Checking if some PAW data can be deallocated... 

     total cpu time spent up to now is      124.6 secs

     per-process dynamical memory:    45.2 Mb

     Self-consistent Calculation

     iteration #  1     ecut=    50.00 Ry     beta= 0.70
     Davidson diagonalization with overlap
     ethr =  1.00E-02,  avg # of iterations =  2.7

     Threshold (ethr) on eigenvalues was too large:
     Diagonalizing with lowered threshold

     Davidson diagonalization with overlap
     ethr =  3.63E-05,  avg # of iterations =  9.6

     total cpu time spent up to now is     3649.5 secs

     total energy              =    -196.51868347 Ry
     estimated scf accuracy    <       0.01595988 Ry

     iteration #  2     ecut=    50.00 Ry     beta= 0.70
     Davidson diagonalization with overlap
     ethr =  1.14E-04,  avg # of iterations =  3.1

     total cpu time spent up to now is     3876.8 secs

     total energy              =    -196.52060071 Ry
     estimated scf accuracy    <       0.00257627 Ry

     iteration #  3     ecut=    50.00 Ry     beta= 0.70
     Davidson diagonalization with overlap
     ethr =  1.84E-05,  avg # of iterations =  3.9

     total cpu time spent up to now is     4134.9 secs

     total energy              =    -196.52144045 Ry
     estimated scf accuracy    <       0.00016655 Ry

     iteration #  4     ecut=    50.00 Ry     beta= 0.70
     Davidson diagonalization with overlap
     c_bands:  1 eigenvalues not converged
     c_bands:  1 eigenvalues not converged
     ethr =  1.19E-06,  avg # of iterations =  7.3

     total cpu time spent up to now is     4483.9 secs

     total energy              =    -196.52157100 Ry
     estimated scf accuracy    <       0.00001966 Ry

     iteration #  5     ecut=    50.00 Ry     beta= 0.70
     Davidson diagonalization with overlap
     c_bands:  1 eigenvalues not converged
     ethr =  1.40E-07,  avg # of iterations =  4.4

     total cpu time spent up to now is     4732.3 secs

     total energy              =    -196.52157747 Ry
     estimated scf accuracy    <       0.00000049 Ry

     iteration #  6     ecut=    50.00 Ry     beta= 0.70
     Davidson diagonalization with overlap
     ethr =  3.47E-09,  avg # of iterations =  7.2

     total cpu time spent up to now is     7000.9 secs

     total energy              =    -196.52157812 Ry
     estimated scf accuracy    <       0.00000020 Ry

     iteration #  7     ecut=    50.00 Ry     beta= 0.70
     Davidson diagonalization with overlap
     ethr =  1.46E-09,  avg # of iterations =  4.2

     total cpu time spent up to now is     7239.9 secs

     End of self-consistent calculation

          k = 0.0000 0.0000 0.0000 (  1419 PWs)   bands (ev):

   -38.9475 -17.5224 -17.5224 -17.5224   1.6371   9.5840   9.5840  13.2492
    13.2493  13.2493  14.3425

          k = 0.0000 0.0000 0.1000 (  1418 PWs)   bands (ev):

   -38.9456 -17.5444 -17.5205 -17.5205   1.7877   9.4406   9.6623  12.7953
    12.7954  13.2725  13.9629

          k = 0.0000 0.0000 0.2000 (  1434 PWs)   bands (ev):

   -38.9407 -17.6016 -17.5154 -17.5154   2.2299   8.8575   9.8816  12.1510
    12.1510  13.3343  13.5665

          k = 0.0000 0.0000 0.3000 (  1434 PWs)   bands (ev):

   -38.9347 -17.6713 -17.5091 -17.5091   2.9353   7.7822  10.1907  11.6307
    11.6308  13.4128  13.7375

          k = 0.0000 0.0000 0.4000 (  1450 PWs)   bands (ev):

   -38.9298 -17.7272 -17.5040 -17.5040   3.8459   6.5204  10.4841  11.2996
    11.2996  13.4781  14.2008

          k = 0.0000 0.0000-0.5000 (  1462 PWs)   bands (ev):

   -38.9279 -17.7483 -17.5022 -17.5022   4.5842   5.6467  10.6102  11.1862
    11.1862  13.5035  14.4473

          k = 0.0000 0.1000 0.1000 (  1422 PWs)   bands (ev):

   -38.9437 -17.5439 -17.5408 -17.5186   1.9361   9.4464   9.6083  12.3455
    12.6463  13.1141  14.2733

          k = 0.0000 0.1000 0.2000 (  1441 PWs)   bands (ev):

   -38.9389 -17.5992 -17.5368 -17.5135   2.3712   8.9406   9.7722  11.7818
    12.1572  13.1050  13.8845

          k = 0.0000 0.1000 0.3000 (  1442 PWs)   bands (ev):

   -38.9329 -17.6684 -17.5301 -17.5072   3.0639   7.8784  10.0817  11.4037
    11.6768  13.1891  13.8770

          k = 0.0000 0.1000 0.4000 (  1451 PWs)   bands (ev):

   -38.9280 -17.7239 -17.5247 -17.5021   3.9522   6.6375  10.4229  11.0865
    11.3583  13.2692  14.2258

          k = 0.0000 0.1000-0.5000 (  1442 PWs)   bands (ev):

   -38.9261 -17.7449 -17.5225 -17.5001   4.6489   5.8057  10.6595  10.8702
    11.2479  13.3013  14.4335

          k = 0.0000 0.2000 0.2000 (  1432 PWs)   bands (ev):

   -38.9341 -17.5966 -17.5887 -17.5084   2.7843   9.1271   9.2617  11.3683
    12.0814  12.7737  14.1645

          k = 0.0000 0.2000 0.3000 (  1445 PWs)   bands (ev):

   -38.9281 -17.6610 -17.5845 -17.5022   3.4364   8.1448   9.5294  11.1773
    11.7919  12.7307  14.0891

          k = 0.0000 0.2000 0.4000 (  1449 PWs)   bands (ev):

   -38.9233 -17.7154 -17.5782 -17.4971   4.2528   6.9770   9.9099  10.9275
    11.5202  12.8098  14.2505

          k = 0.0000 0.2000-0.5000 (  1444 PWs)   bands (ev):

   -38.9214 -17.7360 -17.5758 -17.4952   4.8335   6.2654  10.1440  10.7314
    11.4194  12.8502  14.3809

          k = 0.0000 0.3000 0.3000 (  1450 PWs)   bands (ev):

   -38.9222 -17.6553 -17.6476 -17.4960   4.0116   8.3291   8.7912  11.0690
    11.8647  12.3776  14.1543

          k = 0.0000 0.3000 0.4000 (  1458 PWs)   bands (ev):

   -38.9175 -17.7050 -17.6438 -17.4910   4.6910   7.4914   9.0999  10.8031
    11.7384  12.3532  14.2288

          k = 0.0000 0.3000-0.5000 (  1448 PWs)   bands (ev):

   -38.9157 -17.7251 -17.6409 -17.4890   5.1036   6.9757   9.3466  10.5952
    11.6556  12.3931  14.2990

          k = 0.0000 0.4000 0.4000 (  1436 PWs)   bands (ev):

   -38.9128 -17.6977 -17.6948 -17.4859   5.1506   7.9378   8.5522  10.3941
    11.9010  12.0752  14.2465

          k = 0.0000 0.4000-0.5000 (  1454 PWs)   bands (ev):

   -38.9110 -17.7163 -17.6930 -17.4841   5.3780   7.8416   8.7169  10.0493
    11.8727  12.0756  14.2838

          k = 0.0000-0.5000-0.5000 (  1452 PWs)   bands (ev):

   -38.9092 -17.7129 -17.7129 -17.4822   5.5051   8.4667   8.4667   9.5010
    11.9636  11.9636  14.3088

          k = 0.1000 0.1000 0.1000 (  1439 PWs)   bands (ev):

   -38.9419 -17.5433 -17.5388 -17.5388   2.0821   9.5166   9.5166  12.0324
    12.6714  12.6714  14.7853

          k = 0.1000 0.1000 0.2000 (  1435 PWs)   bands (ev):

   -38.9371 -17.5968 -17.5360 -17.5335   2.5103   9.0162   9.7157  11.5958
    12.0116  12.7825  14.2367

          k = 0.1000 0.1000 0.3000 (  1435 PWs)   bands (ev):

   -38.9311 -17.6656 -17.5292 -17.5269   3.1905   7.9736  10.0066  11.4396
    11.4438  12.9223  14.0583

          k = 0.1000 0.1000 0.4000 (  1450 PWs)   bands (ev):

   -38.9262 -17.7207 -17.5237 -17.5216   4.0572   6.7541  10.3311  11.0086
    11.3591  13.0265  14.2772

          k = 0.1000 0.1000-0.5000 (  1450 PWs)   bands (ev):

   -38.9243 -17.7416 -17.5216 -17.5195   4.7169   5.9596  10.5958  10.7220
    11.3199  13.0662  14.4430

          k = 0.1000 0.2000 0.2000 (  1440 PWs)   bands (ev):

   -38.9323 -17.5942 -17.5865 -17.5293   2.9167   9.1641   9.3273  11.2479
    11.8577  12.4265  14.5700

          k = 0.1000 0.2000 0.3000 (  1443 PWs)   bands (ev):

   -38.9263 -17.6583 -17.5823 -17.5227   3.5573   8.2349   9.5310  11.2202
    11.5041  12.4580  14.3342

          k = 0.1000 0.2000 0.4000 (  1450 PWs)   bands (ev):

   -38.9215 -17.7124 -17.5760 -17.5173   4.3550   7.0893   9.8146  10.9806
    11.4817  12.5434  14.3498

          k = 0.1000 0.2000-0.5000 (  1452 PWs)   bands (ev):

   -38.9197 -17.7329 -17.5736 -17.5153   4.9112   6.4022   9.9533  10.8307
    11.5009  12.5800  14.4334

          k = 0.1000 0.3000 0.3000 (  1444 PWs)   bands (ev):

   -38.9205 -17.6526 -17.6450 -17.5162   4.1238   8.4463   8.7713  11.1542
    11.5417  12.2302  14.3920

          k = 0.1000 0.3000 0.4000 (  1446 PWs)   bands (ev):

   -38.9157 -17.7020 -17.6412 -17.5109   4.7923   7.5874   9.0398  10.8693
    11.6905  12.2110  14.3537

          k = 0.1000 0.3000-0.5000 (  1452 PWs)   bands (ev):

   -38.9139 -17.7221 -17.6384 -17.5089   5.1967   7.0761   9.2188  10.7071
    11.7499  12.2186  14.3765

          k = 0.1000 0.4000 0.4000 (  1453 PWs)   bands (ev):

   -38.9110 -17.6950 -17.6921 -17.5057   5.2564   8.0053   8.4796  10.4576
    11.9044  12.1234  14.3210

          k = 0.1000 0.4000-0.5000 (  1452 PWs)   bands (ev):

   -38.9092 -17.7134 -17.6903 -17.5037   5.4896   7.8671   8.6181  10.1696
    11.9869  12.1133  14.3225

          k = 0.1000-0.5000-0.5000 (  1436 PWs)   bands (ev):

   -38.9074 -17.7100 -17.7100 -17.5015   5.6269   8.3733   8.3733   9.7221
    12.0900  12.0900  14.3160

          k = 0.2000 0.2000 0.2000 (  1433 PWs)   bands (ev):

   -38.9275 -17.5909 -17.5805 -17.5805   3.3028   9.2602   9.2602  10.7869
    11.8693  11.8693  15.3088

          k = 0.2000 0.2000 0.3000 (  1451 PWs)   bands (ev):

   -38.9216 -17.6511 -17.5791 -17.5733   3.9076   8.4605   9.3735  10.9218
    11.4200  12.0456  14.7594

          k = 0.2000 0.2000 0.4000 (  1456 PWs)   bands (ev):

   -38.9169 -17.7043 -17.5728 -17.5673   4.6473   7.3981   9.4546  11.1564
    11.4008  12.1156  14.5201

          k = 0.2000 0.2000-0.5000 (  1456 PWs)   bands (ev):

   -38.9150 -17.7245 -17.5704 -17.5651   5.1342   6.7852   9.4810  11.0749
    11.7045  12.0433  14.4985

          k = 0.2000 0.3000 0.3000 (  1451 PWs)   bands (ev):

   -38.9158 -17.6455 -17.6384 -17.5686   4.4484   8.6946   8.7098  10.8751
    11.4287  11.9747  14.9256

          k = 0.2000 0.3000 0.4000 (  1447 PWs)   bands (ev):

   -38.9111 -17.6944 -17.6346 -17.5626   5.0845   7.8144   8.8544  11.0296
    11.5581  12.0751  14.5998

          k = 0.2000 0.3000-0.5000 (  1460 PWs)   bands (ev):

   -38.9093 -17.7142 -17.6319 -17.5604   5.4654   7.3308   8.8986  11.0461
    11.8726  11.9789  14.5043

          k = 0.2000 0.4000 0.4000 (  1462 PWs)   bands (ev):

   -38.9064 -17.6876 -17.6849 -17.5569   5.5633   8.1174   8.2969  10.7182
    11.9450  12.2519  14.1952

          k = 0.2000 0.4000-0.5000 (  1460 PWs)   bands (ev):

   -38.9046 -17.7058 -17.6832 -17.5547   5.8148   7.8824   8.3778  10.5980
    12.2239  12.2675  13.9337

          k = 0.2000-0.5000-0.5000 (  1444 PWs)   bands (ev):

   -38.9029 -17.7026 -17.7026 -17.5524   5.9856   8.1475   8.1475  10.3632
    12.4220  12.4220  13.6341

          k = 0.3000 0.3000 0.3000 (  1451 PWs)   bands (ev):

   -38.9100 -17.6393 -17.6302 -17.6302   4.9475   8.6173   8.6173  10.6420
    11.7967  11.7967  14.4681

          k = 0.3000 0.3000 0.4000 (  1456 PWs)   bands (ev):

   -38.9054 -17.6849 -17.6289 -17.6236   5.5293   8.0165   8.5309  11.1021
    11.7202  12.1418  13.8039

          k = 0.3000 0.3000-0.5000 (  1464 PWs)   bands (ev):

   -38.9036 -17.7045 -17.6263 -17.6211   5.8709   7.6212   8.4952  11.4954
    11.7031  12.2255  13.5307

          k = 0.3000 0.4000 0.4000 (  1450 PWs)   bands (ev):

   -38.9007 -17.6784 -17.6760 -17.6195   6.0342   8.0839   8.1034  11.2503
    12.0564  12.4161  13.0075

          k = 0.3000 0.4000-0.5000 (  1454 PWs)   bands (ev):

   -38.8990 -17.6964 -17.6743 -17.6170   6.3170   7.8268   8.1011  11.3943
    12.2508  12.3849  12.9129

          k = 0.3000-0.5000-0.5000 (  1452 PWs)   bands (ev):

   -38.8972 -17.6934 -17.6934 -17.6145   6.5540   7.8964   7.8964  11.3542
    12.0993  12.8580  12.8581

          k = 0.4000 0.4000 0.4000 (  1448 PWs)   bands (ev):

   -38.8961 -17.6719 -17.6687 -17.6687   6.5747   7.9202   7.9202  11.4519
    12.3901  12.5535  12.5536

          k = 0.4000 0.4000-0.5000 (  1448 PWs)   bands (ev):

   -38.8944 -17.6888 -17.6680 -17.6660   6.8937   7.7460   7.8594  11.2521
    12.3758  12.6072  13.1249

          k = 0.4000-0.5000-0.5000 (  1432 PWs)   bands (ev):

   -38.8926 -17.6859 -17.6859 -17.6641   7.2369   7.7103   7.7103  10.7903
    12.5523  13.2630  14.3760

          k =-0.5000-0.5000-0.5000 (  1472 PWs)   bands (ev):

   -38.8909 -17.6832 -17.6832 -17.6832   7.6418   7.6418   7.6418  10.1708
    13.4405  13.4406  13.4409

     the Fermi energy is    10.3460 ev

!    total energy              =    -196.52157818 Ry
     total all-electron energy =     -2014.153142 Ry
     estimated scf accuracy    <          3.6E-09 Ry
     smearing contrib. (-TS)   =       0.00027564 Ry
     internal energy E=F+TS    =    -196.52185383 Ry

     The total energy is F=E-TS. E is the sum of the following terms:
     one-electron contribution =     -37.48897490 Ry
     hartree contribution      =      23.74137278 Ry
     xc contribution           =     -20.19507294 Ry
     ewald contribution        =     -67.63469197 Ry
     one-center paw contrib.   =     -94.94448679 Ry

     convergence has been achieved in   7 iterations

     Forces acting on atoms (cartesian axes, Ry/au):

     atom    1 type  1   force =     0.00000000    0.00000000    0.00000000
     atom    2 type  2   force =     0.00000000    0.00000000    0.00000000

     Total force =     0.000000     Total SCF correction =     0.000000


     Computing stress (Cartesian axis) and pressure

          total   stress  (Ry/bohr**3)                   (kbar)     P=       59.88
   0.00040707   0.00000000   0.00000000           59.88        0.00        0.00
   0.00000000   0.00040707   0.00000000            0.00       59.88        0.00
   0.00000000   0.00000000   0.00040707            0.00        0.00       59.88


     Writing all to output data dir ./tmp_3.300/scal_3.300.save/ :
     XML data file, charge density, pseudopotentials, collected wavefunctions

     init_run     :    768.93s CPU    124.51s WALL (       1 calls)
     electrons    :  13811.31s CPU   7115.32s WALL (       1 calls)
     forces       :     26.94s CPU      4.42s WALL (       1 calls)
     stress       :      6.55s CPU      1.36s WALL (       1 calls)

     Called by init_run:
     wfcinit      :    528.63s CPU     95.31s WALL (       1 calls)
     potinit      :    177.93s CPU     17.42s WALL (       1 calls)
     hinit0       :     60.66s CPU      9.97s WALL (       1 calls)

     Called by electrons:
     c_bands      :  11845.47s CPU   6782.74s WALL (       8 calls)
     sum_band     :   1910.40s CPU    321.87s WALL (       8 calls)
     v_of_rho     :     22.00s CPU      3.53s WALL (       8 calls)
     newd         :      4.02s CPU      2.24s WALL (       8 calls)
     PAW_pot      :     29.56s CPU      6.51s WALL (       8 calls)
     mix_rho      :      4.41s CPU      0.71s WALL (       8 calls)

     Called by c_bands:
     init_us_2    :      0.53s CPU      0.12s WALL (    1064 calls)
     cegterg      :  11844.15s CPU   6782.42s WALL (     448 calls)

     Called by *egterg:
     cdiaghg      :      7.62s CPU      1.98s WALL (    2769 calls)
     h_psi        :  11446.15s CPU   3907.96s WALL (    2881 calls)
     s_psi        :      6.33s CPU      0.49s WALL (    2881 calls)
     g_psi        :      0.22s CPU      0.02s WALL (    2377 calls)

     Called by h_psi:
     h_psi:calbec :    118.16s CPU     20.86s WALL (    2881 calls)
     vloc_psi     :  10985.54s CPU   3829.41s WALL (    2881 calls)
                                        0.00s GPU  (    2881 calls)
     add_vuspsi   :      2.03s CPU      0.53s WALL (    2881 calls)

     General routines
     calbec       :    137.03s CPU     25.33s WALL (    4281 calls)
     fft          :     91.98s CPU     16.48s WALL (     128 calls)
     ffts         :    174.40s CPU     16.78s WALL (      16 calls)
     fftw         :  10217.22s CPU   3709.22s WALL (   38898 calls)
     interpolate  :    174.38s CPU     16.79s WALL (       8 calls)

     Parallel routines

     PWSCF        :      4h 3m CPU      2h 0m WALL


   This run was terminated on:  20:50:36   6Sep2026            

=------------------------------------------------------------------------------=
   JOB DONE.
=------------------------------------------------------------------------------=
