
     Program PWSCF v.7.5 starts on  6Sep2026 at 21:32: 9 

     This program is part of the open-source Quantum ESPRESSO suite
     for quantum simulation of materials; please cite
         "P. Giannozzi et al., J. Phys.:Condens. Matter 21 395502 (2009);
         "P. Giannozzi et al., J. Phys.:Condens. Matter 29 465901 (2017);
         "P. Giannozzi et al., J. Chem. Phys. 152 154105 (2020);
          URL http://www.quantum-espresso.org", 
     in publications or presentations arising from this work. More details at
     http://www.quantum-espresso.org/quote

     Parallel version (MPI & OpenMP), running on      96 processor cores
     Number of MPI processes:                 4
     Threads/MPI process:                    24

     MPI processes distributed on     1 nodes
     13119 MiB available memory on the printing compute node when the environment starts

     Waiting for input...
     Reading input from standard input
Warning: card &CELL ignored

     Current dimensions of program PWSCF are:
     Max number of different atomic species (ntypx) = 10
     Max number of k-points (npk) =  40000
     Max angular momentum in pseudopotentials (lmaxx) =  4
     file Sc.pbe-spn-kjpaw_psl.1.0.0.UPF: wavefunction(s)  3S 3P 3D renormalized
     file Al.pbe-n-kjpaw_psl.1.0.0.UPF: wavefunction(s)  3S 3P renormalized
     Message from routine setup:
     using ibrav=0 with symmetry is DISCOURAGED, use correct ibrav instead

     R & G space division:  proc/nbgrp/npool/nimage =       4
     Subspace diagonalization in iterative solution of the eigenvalue problem:
     a serial algorithm will be used


     Parallelization info
     --------------------
     sticks:   dense  smooth     PW     G-vecs:    dense   smooth      PW
     Min         328     166     53                 8956     3198     551
     Max         329     167     54                 8957     3201     552
     Sum        1313     665    213                35825    12797    2205

     Using Slab Decomposition



     bravais-lattice index     =            0
     lattice parameter (alat)  =       6.4251  a.u.
     unit-cell volume          =     265.2365 (a.u.)^3
     number of atoms/cell      =            2
     number of atomic types    =            2
     number of electrons       =        14.00
     number of Kohn-Sham states=           11
     kinetic-energy cutoff     =      50.0000  Ry
     charge density cutoff     =     400.0000  Ry
     scf convergence threshold =      1.0E-08
     mixing beta               =       0.7000
     number of iterations used =            8  plain     mixing
     Exchange-correlation= SLA  PW   PBX  PBC
                           (   1   4   3   4   0   0   0)

     celldm(1)=   6.425069  celldm(2)=   0.000000  celldm(3)=   0.000000
     celldm(4)=   0.000000  celldm(5)=   0.000000  celldm(6)=   0.000000

     crystal axes: (cart. coord. in units of alat)
               a(1) = (   1.000000   0.000000   0.000000 )  
               a(2) = (   0.000000   1.000000   0.000000 )  
               a(3) = (   0.000000   0.000000   1.000000 )  

     reciprocal axes: (cart. coord. in units 2 pi/alat)
               b(1) = (  1.000000  0.000000  0.000000 )  
               b(2) = (  0.000000  1.000000  0.000000 )  
               b(3) = (  0.000000  0.000000  1.000000 )  


     PseudoPot. # 1 for Sc read from file:
     /home/jdmin2003/qe-work/pseudo/Sc.pbe-spn-kjpaw_psl.1.0.0.UPF
     MD5 check sum: d5ac433e587a0148d610ca85a1be5559
     Pseudo is Projector augmented-wave + core cor, Zval = 11.0
     Generated using &quot;atomic&quot; code by A. Dal Corso  v.6.2.2
     Shape of augmentation charge: PSQ
     Using radial grid of 1173 points,  6 beta functions with: 
                l(1) =   0
                l(2) =   0
                l(3) =   1
                l(4) =   1
                l(5) =   2
                l(6) =   2
     Q(r) pseudized with 0 coefficients 


     PseudoPot. # 2 for Al read from file:
     /home/jdmin2003/qe-work/pseudo/Al.pbe-n-kjpaw_psl.1.0.0.UPF
     MD5 check sum: 502b6b27b9c6270cab5dd1084b96fa6d
     Pseudo is Projector augmented-wave + core cor, Zval =  3.0
     Generated using &quot;atomic&quot; code by A. Dal Corso  v.6.3
     Shape of augmentation charge: PSQ
     Using radial grid of 1135 points,  6 beta functions with: 
                l(1) =   0
                l(2) =   0
                l(3) =   1
                l(4) =   1
                l(5) =   2
                l(6) =   2
     Q(r) pseudized with 0 coefficients 


     atomic species   valence    mass     pseudopotential
     Sc               11.00    44.95600     Sc( 1.00)
     Al                3.00    26.98200     Al( 1.00)

     48 Sym. Ops., with inversion, found



   Cartesian axes

     site n.     atom                  positions (alat units)
         1        Sc     tau(   1) = (   0.0000000   0.0000000   0.0000000  )
         2        Al     tau(   2) = (   0.5000000   0.5000000   0.5000000  )

     number of k points=    56  Marzari-Vanderbilt smearing, width (Ry)=  0.0200
                       cart. coord. in units 2pi/alat
        k(    1) = (   0.0000000   0.0000000   0.0000000), wk =   0.0020000
        k(    2) = (   0.0000000   0.0000000   0.1000000), wk =   0.0120000
        k(    3) = (   0.0000000   0.0000000   0.2000000), wk =   0.0120000
        k(    4) = (   0.0000000   0.0000000   0.3000000), wk =   0.0120000
        k(    5) = (   0.0000000   0.0000000   0.4000000), wk =   0.0120000
        k(    6) = (   0.0000000   0.0000000  -0.5000000), wk =   0.0060000
        k(    7) = (   0.0000000   0.1000000   0.1000000), wk =   0.0240000
        k(    8) = (   0.0000000   0.1000000   0.2000000), wk =   0.0480000
        k(    9) = (   0.0000000   0.1000000   0.3000000), wk =   0.0480000
        k(   10) = (   0.0000000   0.1000000   0.4000000), wk =   0.0480000
        k(   11) = (   0.0000000   0.1000000  -0.5000000), wk =   0.0240000
        k(   12) = (   0.0000000   0.2000000   0.2000000), wk =   0.0240000
        k(   13) = (   0.0000000   0.2000000   0.3000000), wk =   0.0480000
        k(   14) = (   0.0000000   0.2000000   0.4000000), wk =   0.0480000
        k(   15) = (   0.0000000   0.2000000  -0.5000000), wk =   0.0240000
        k(   16) = (   0.0000000   0.3000000   0.3000000), wk =   0.0240000
        k(   17) = (   0.0000000   0.3000000   0.4000000), wk =   0.0480000
        k(   18) = (   0.0000000   0.3000000  -0.5000000), wk =   0.0240000
        k(   19) = (   0.0000000   0.4000000   0.4000000), wk =   0.0240000
        k(   20) = (   0.0000000   0.4000000  -0.5000000), wk =   0.0240000
        k(   21) = (   0.0000000  -0.5000000  -0.5000000), wk =   0.0060000
        k(   22) = (   0.1000000   0.1000000   0.1000000), wk =   0.0160000
        k(   23) = (   0.1000000   0.1000000   0.2000000), wk =   0.0480000
        k(   24) = (   0.1000000   0.1000000   0.3000000), wk =   0.0480000
        k(   25) = (   0.1000000   0.1000000   0.4000000), wk =   0.0480000
        k(   26) = (   0.1000000   0.1000000  -0.5000000), wk =   0.0240000
        k(   27) = (   0.1000000   0.2000000   0.2000000), wk =   0.0480000
        k(   28) = (   0.1000000   0.2000000   0.3000000), wk =   0.0960000
        k(   29) = (   0.1000000   0.2000000   0.4000000), wk =   0.0960000
        k(   30) = (   0.1000000   0.2000000  -0.5000000), wk =   0.0480000
        k(   31) = (   0.1000000   0.3000000   0.3000000), wk =   0.0480000
        k(   32) = (   0.1000000   0.3000000   0.4000000), wk =   0.0960000
        k(   33) = (   0.1000000   0.3000000  -0.5000000), wk =   0.0480000
        k(   34) = (   0.1000000   0.4000000   0.4000000), wk =   0.0480000
        k(   35) = (   0.1000000   0.4000000  -0.5000000), wk =   0.0480000
        k(   36) = (   0.1000000  -0.5000000  -0.5000000), wk =   0.0120000
        k(   37) = (   0.2000000   0.2000000   0.2000000), wk =   0.0160000
        k(   38) = (   0.2000000   0.2000000   0.3000000), wk =   0.0480000
        k(   39) = (   0.2000000   0.2000000   0.4000000), wk =   0.0480000
        k(   40) = (   0.2000000   0.2000000  -0.5000000), wk =   0.0240000
        k(   41) = (   0.2000000   0.3000000   0.3000000), wk =   0.0480000
        k(   42) = (   0.2000000   0.3000000   0.4000000), wk =   0.0960000
        k(   43) = (   0.2000000   0.3000000  -0.5000000), wk =   0.0480000
        k(   44) = (   0.2000000   0.4000000   0.4000000), wk =   0.0480000
        k(   45) = (   0.2000000   0.4000000  -0.5000000), wk =   0.0480000
        k(   46) = (   0.2000000  -0.5000000  -0.5000000), wk =   0.0120000
        k(   47) = (   0.3000000   0.3000000   0.3000000), wk =   0.0160000
        k(   48) = (   0.3000000   0.3000000   0.4000000), wk =   0.0480000
        k(   49) = (   0.3000000   0.3000000  -0.5000000), wk =   0.0240000
        k(   50) = (   0.3000000   0.4000000   0.4000000), wk =   0.0480000
        k(   51) = (   0.3000000   0.4000000  -0.5000000), wk =   0.0480000
        k(   52) = (   0.3000000  -0.5000000  -0.5000000), wk =   0.0120000
        k(   53) = (   0.4000000   0.4000000   0.4000000), wk =   0.0160000
        k(   54) = (   0.4000000   0.4000000  -0.5000000), wk =   0.0240000
        k(   55) = (   0.4000000  -0.5000000  -0.5000000), wk =   0.0120000
        k(   56) = (  -0.5000000  -0.5000000  -0.5000000), wk =   0.0020000

     Dense  grid:    35825 G-vectors     FFT dimensions: (  45,  45,  45)

     Smooth grid:    12797 G-vectors     FFT dimensions: (  30,  30,  30)

     Estimated max dynamical RAM per process >      40.31 MB

     Estimated total dynamical RAM >     161.23 MB

     Check: negative core charge=   -0.000007

     Initial potential from superposition of free atoms

     starting charge      13.9951, renormalised to      14.0000
     Starting wfcs are   14 randomized atomic wfcs
     Checking if some PAW data can be deallocated... 

     total cpu time spent up to now is      116.2 secs

     per-process dynamical memory:    46.1 Mb

     Self-consistent Calculation

     iteration #  1     ecut=    50.00 Ry     beta= 0.70
     Davidson diagonalization with overlap
     ethr =  1.00E-02,  avg # of iterations =  2.5

     Threshold (ethr) on eigenvalues was too large:
     Diagonalizing with lowered threshold

     Davidson diagonalization with overlap
     ethr =  3.77E-05,  avg # of iterations = 10.1

     total cpu time spent up to now is      831.8 secs

     total energy              =    -196.52102118 Ry
     estimated scf accuracy    <       0.01799442 Ry

     iteration #  2     ecut=    50.00 Ry     beta= 0.70
     Davidson diagonalization with overlap
     ethr =  1.29E-04,  avg # of iterations =  4.4

     total cpu time spent up to now is     1079.1 secs

     total energy              =    -196.52321627 Ry
     estimated scf accuracy    <       0.00552333 Ry

     iteration #  3     ecut=    50.00 Ry     beta= 0.70
     Davidson diagonalization with overlap
     ethr =  3.95E-05,  avg # of iterations =  4.2

     total cpu time spent up to now is     1320.0 secs

     total energy              =    -196.52486422 Ry
     estimated scf accuracy    <       0.00036901 Ry

     iteration #  4     ecut=    50.00 Ry     beta= 0.70
     Davidson diagonalization with overlap
     c_bands:  1 eigenvalues not converged
     c_bands:  1 eigenvalues not converged
     c_bands:  1 eigenvalues not converged
     c_bands:  1 eigenvalues not converged
     ethr =  2.64E-06,  avg # of iterations =  7.3

     total cpu time spent up to now is     1672.5 secs

     total energy              =    -196.52505026 Ry
     estimated scf accuracy    <       0.00000215 Ry

     iteration #  5     ecut=    50.00 Ry     beta= 0.70
     Davidson diagonalization with overlap
     ethr =  1.54E-08,  avg # of iterations =  8.5

     total cpu time spent up to now is     2026.1 secs

     total energy              =    -196.52505780 Ry
     estimated scf accuracy    <       0.00000210 Ry

     iteration #  6     ecut=    50.00 Ry     beta= 0.70
     Davidson diagonalization with overlap
     c_bands:  1 eigenvalues not converged
     ethr =  1.50E-08,  avg # of iterations =  6.4

     total cpu time spent up to now is     2333.7 secs

     total energy              =    -196.52505839 Ry
     estimated scf accuracy    <       0.00000228 Ry

     iteration #  7     ecut=    50.00 Ry     beta= 0.70
     Davidson diagonalization with overlap
     ethr =  1.50E-08,  avg # of iterations =  2.2

     total cpu time spent up to now is     2534.9 secs

     total energy              =    -196.52505859 Ry
     estimated scf accuracy    <       0.00000016 Ry

     iteration #  8     ecut=    50.00 Ry     beta= 0.70
     Davidson diagonalization with overlap
     ethr =  1.13E-09,  avg # of iterations =  7.1

     total cpu time spent up to now is     2840.7 secs

     total energy              =    -196.52505882 Ry
     estimated scf accuracy    <       0.00000024 Ry

     iteration #  9     ecut=    50.00 Ry     beta= 0.70
     Davidson diagonalization with overlap
     ethr =  1.13E-09,  avg # of iterations =  1.1

     total cpu time spent up to now is     3028.3 secs

     total energy              =    -196.52505880 Ry
     estimated scf accuracy    <       0.00000009 Ry

     iteration # 10     ecut=    50.00 Ry     beta= 0.70
     Davidson diagonalization with overlap
     ethr =  6.37E-10,  avg # of iterations =  4.0

     total cpu time spent up to now is     3253.1 secs

     End of self-consistent calculation

          k = 0.0000 0.0000 0.0000 (  1575 PWs)   bands (ev):

   -40.2399 -18.8157 -18.8157 -18.8157   0.9487   8.7005   8.7005  11.9446
    11.9447  11.9447  12.9206

          k = 0.0000 0.0000 0.1000 (  1583 PWs)   bands (ev):

   -40.2387 -18.8314 -18.8144 -18.8144   1.0876   8.5444   8.7704  11.5302
    11.5303  11.9647  12.5447

          k = 0.0000 0.0000 0.2000 (  1595 PWs)   bands (ev):

   -40.2354 -18.8721 -18.8108 -18.8108   1.4962   7.9281   8.9661  10.9489
    10.9489  12.0178  12.1712

          k = 0.0000 0.0000 0.3000 (  1566 PWs)   bands (ev):

   -40.2314 -18.9216 -18.8062 -18.8062   2.1501   6.8429   9.2394  10.4823
    10.4823  12.0851  12.3398

          k = 0.0000 0.0000 0.4000 (  1578 PWs)   bands (ev):

   -40.2282 -18.9617 -18.8027 -18.8027   2.9918   5.6208   9.4953  10.1861
    10.1861  12.1409  12.7622

          k = 0.0000 0.0000-0.5000 (  1622 PWs)   bands (ev):

   -40.2270 -18.9770 -18.8015 -18.8015   3.6437   4.8256   9.6040  10.0847
    10.0847  12.1625  12.9824

          k = 0.0000 0.1000 0.1000 (  1591 PWs)   bands (ev):

   -40.2374 -18.8309 -18.8290 -18.8130   1.2245   8.5426   8.7057  11.1085
    11.3912  11.8285  12.8581

          k = 0.0000 0.1000 0.2000 (  1593 PWs)   bands (ev):

   -40.2342 -18.8704 -18.8261 -18.8094   1.6272   8.0062   8.8472  10.6066
    10.9534  11.8199  12.4759

          k = 0.0000 0.1000 0.3000 (  1580 PWs)   bands (ev):

   -40.2302 -18.9198 -18.8213 -18.8049   2.2704   6.9358   9.1240  10.2806
    10.5253  11.8928  12.4695

          k = 0.0000 0.1000 0.4000 (  1581 PWs)   bands (ev):

   -40.2270 -18.9595 -18.8174 -18.8013   3.0930   5.7341   9.4275  10.0002
    10.2416  11.9624  12.7865

          k = 0.0000 0.1000-0.5000 (  1584 PWs)   bands (ev):

   -40.2258 -18.9746 -18.8160 -18.7999   3.7127   4.9723   9.6453   9.7998
    10.1434  11.9903  12.9722

          k = 0.0000 0.2000 0.2000 (  1588 PWs)   bands (ev):

   -40.2310 -18.8682 -18.8635 -18.8058   2.0115   8.1799   8.3082  10.2486
    10.8844  11.5340  12.7617

          k = 0.0000 0.2000 0.3000 (  1584 PWs)   bands (ev):

   -40.2271 -18.9148 -18.8602 -18.8014   2.6205   7.1949   8.5580  10.0917
    10.6327  11.4953  12.6783

          k = 0.0000 0.2000 0.4000 (  1581 PWs)   bands (ev):

   -40.2239 -18.9538 -18.8559 -18.7978   3.3821   6.0629   8.9105   9.8706
    10.3949  11.5651  12.8176

          k = 0.0000 0.2000-0.5000 (  1578 PWs)   bands (ev):

   -40.2227 -18.9687 -18.8542 -18.7964   3.9109   5.3976   9.1211   9.6990
    10.3062  11.6011  12.9323

          k = 0.0000 0.3000 0.3000 (  1588 PWs)   bands (ev):

   -40.2232 -18.9107 -18.9060 -18.7970   3.1648   7.3924   7.8020   9.9954
    10.7038  11.1883  12.7493

          k = 0.0000 0.3000 0.4000 (  1594 PWs)   bands (ev):

   -40.2200 -18.9468 -18.9031 -18.7935   3.8118   6.5619   8.1054   9.7455
    10.6014  11.1659  12.8082

          k = 0.0000 0.3000-0.5000 (  1586 PWs)   bands (ev):

   -40.2188 -18.9614 -18.9011 -18.7921   4.2049   6.0587   8.3431   9.5511
    10.5307  11.2019  12.8668

          k = 0.0000 0.4000 0.4000 (  1594 PWs)   bands (ev):

   -40.2169 -18.9419 -18.9402 -18.7900   4.2749   6.9964   7.5356   9.3487
    10.7567  10.9223  12.8216

          k = 0.0000 0.4000-0.5000 (  1596 PWs)   bands (ev):

   -40.2157 -18.9555 -18.9388 -18.7886   4.5109   6.8672   7.7035   9.0198
    10.7372  10.9226  12.8516

          k = 0.0000-0.5000-0.5000 (  1596 PWs)   bands (ev):

   -40.2145 -18.9532 -18.9532 -18.7873   4.6561   7.4411   7.4411   8.5084
    10.8238  10.8238  12.8707

          k = 0.1000 0.1000 0.1000 (  1578 PWs)   bands (ev):

   -40.2362 -18.8302 -18.8275 -18.8275   1.3596   8.6065   8.6065  10.8022
    11.4284  11.4284  13.3288

          k = 0.1000 0.1000 0.2000 (  1589 PWs)   bands (ev):

   -40.2330 -18.8687 -18.8253 -18.8238   1.7565   8.0777   8.7863  10.4114
    10.8376  11.5343  12.7984

          k = 0.1000 0.1000 0.3000 (  1586 PWs)   bands (ev):

   -40.2290 -18.9179 -18.8206 -18.8192   2.3892   7.0277   9.0476  10.2930
    10.3316  11.6608  12.6319

          k = 0.1000 0.1000 0.4000 (  1580 PWs)   bands (ev):

   -40.2258 -18.9574 -18.8167 -18.8153   3.1934   5.8466   9.3367   9.9452
    10.2301  11.7532  12.8314

          k = 0.1000 0.1000-0.5000 (  1594 PWs)   bands (ev):

   -40.2246 -18.9724 -18.8153 -18.8140   3.7843   5.1145   9.5633   9.6990
    10.1970  11.7883  12.9807

          k = 0.1000 0.2000 0.2000 (  1574 PWs)   bands (ev):

   -40.2298 -18.8665 -18.8619 -18.8207   2.1353   8.2163   8.3743  10.1026
    10.6995  11.2250  13.1264

          k = 0.1000 0.2000 0.3000 (  1577 PWs)   bands (ev):

   -40.2259 -18.9129 -18.8587 -18.8161   2.7348   7.2824   8.5659  10.1174
    10.3699  11.2551  12.8912

          k = 0.1000 0.2000 0.4000 (  1582 PWs)   bands (ev):

   -40.2227 -18.9518 -18.8543 -18.8123   3.4807   6.1704   8.8348   9.9235
    10.3409  11.3311  12.9009

          k = 0.1000 0.2000-0.5000 (  1584 PWs)   bands (ev):

   -40.2215 -18.9666 -18.8527 -18.8109   3.9901   5.5253   8.9662   9.7876
    10.3615  11.3641  12.9756

          k = 0.1000 0.3000 0.3000 (  1593 PWs)   bands (ev):

   -40.2220 -18.9088 -18.9043 -18.8115   3.2721   7.5060   7.7930  10.0756
    10.3953  11.0559  12.9594

          k = 0.1000 0.3000 0.4000 (  1586 PWs)   bands (ev):

   -40.2188 -18.9448 -18.9013 -18.8078   3.9103   6.6546   8.0670   9.8094
    10.5399  11.0377  12.9151

          k = 0.1000 0.3000-0.5000 (  1576 PWs)   bands (ev):

   -40.2176 -18.9593 -18.8994 -18.8063   4.2967   6.1554   8.2475   9.6545
    10.5982  11.0440  12.9316

          k = 0.1000 0.4000 0.4000 (  1589 PWs)   bands (ev):

   -40.2157 -18.9400 -18.9383 -18.8041   4.3774   7.0672   7.4863   9.4134
    10.7455  10.9581  12.8868

          k = 0.1000 0.4000-0.5000 (  1588 PWs)   bands (ev):

   -40.2145 -18.9535 -18.9370 -18.8027   4.6186   6.9001   7.6344   9.1351
    10.8261  10.9479  12.8848

          k = 0.1000-0.5000-0.5000 (  1600 PWs)   bands (ev):

   -40.2133 -18.9513 -18.9513 -18.8013   4.7734   7.3760   7.3760   8.7090
    10.9260  10.9260  12.8768

          k = 0.2000 0.2000 0.2000 (  1583 PWs)   bands (ev):

   -40.2267 -18.8642 -18.8578 -18.8578   2.4975   8.3118   8.3118   9.6274
    10.7287  10.7287  13.7952

          k = 0.2000 0.2000 0.3000 (  1579 PWs)   bands (ev):

   -40.2228 -18.9080 -18.8563 -18.8526   3.0673   7.5063   8.4288   9.7752
    10.3240  10.8886  13.2626

          k = 0.2000 0.2000 0.4000 (  1588 PWs)   bands (ev):

   -40.2196 -18.9464 -18.8520 -18.8485   3.7649   6.4692   8.5182  10.0805
    10.2392  10.9484  13.0462

          k = 0.2000 0.2000-0.5000 (  1572 PWs)   bands (ev):

   -40.2184 -18.9609 -18.8503 -18.8468   4.2186   5.8856   8.5498  10.0031
    10.5233  10.8850  13.0317

          k = 0.2000 0.3000 0.3000 (  1587 PWs)   bands (ev):

   -40.2189 -18.9040 -18.8996 -18.8493   3.5840   7.7599   7.7626   9.7424
    10.3196  10.8218  13.4346

          k = 0.2000 0.3000 0.4000 (  1577 PWs)   bands (ev):

   -40.2158 -18.9396 -18.8967 -18.8451   4.1957   6.8822   7.9360   9.9369
    10.4000  10.9012  13.0995

          k = 0.2000 0.3000-0.5000 (  1576 PWs)   bands (ev):

   -40.2146 -18.9539 -18.8949 -18.8435   4.5626   6.4074   7.9922   9.9633
    10.7232  10.7687  13.0711

          k = 0.2000 0.4000 0.4000 (  1583 PWs)   bands (ev):

   -40.2127 -18.9349 -18.9333 -18.8410   4.6764   7.2044   7.3597   9.6468
    10.7466  11.0583  12.6388

          k = 0.2000 0.4000-0.5000 (  1588 PWs)   bands (ev):

   -40.2115 -18.9483 -18.9321 -18.8395   4.9342   6.9481   7.4606   9.5278
    11.0296  11.0451  12.3952

          k = 0.2000-0.5000-0.5000 (  1580 PWs)   bands (ev):

   -40.2103 -18.9462 -18.9462 -18.8379   5.1212   7.2150   7.2150   9.2919
    11.2043  11.2044  12.1108

          k = 0.3000 0.3000 0.3000 (  1592 PWs)   bands (ev):

   -40.2151 -18.8997 -18.8940 -18.8940   4.0672   7.7112   7.7112   9.4678
    10.6515  10.6515  12.8943

          k = 0.3000 0.3000 0.4000 (  1576 PWs)   bands (ev):

   -40.2120 -18.9332 -18.8927 -18.8893   4.6347   7.1086   7.6592   9.9250
    10.5729  10.9373  12.2922

          k = 0.3000 0.3000-0.5000 (  1564 PWs)   bands (ev):

   -40.2108 -18.9473 -18.8908 -18.8875   4.9695   6.7121   7.6371  10.3603
    10.5537  10.9382  12.0504

          k = 0.3000 0.4000 0.4000 (  1587 PWs)   bands (ev):

   -40.2089 -18.9287 -18.9272 -18.8864   5.1401   7.2076   7.2414  10.0613
    10.8076  11.1943  11.5897

          k = 0.3000 0.4000-0.5000 (  1584 PWs)   bands (ev):

   -40.2077 -18.9419 -18.9260 -18.8846   5.4282   6.9461   7.2494  10.2439
    10.8337  11.1607  11.6015

          k = 0.3000-0.5000-0.5000 (  1592 PWs)   bands (ev):

   -40.2065 -18.9399 -18.9399 -18.8829   5.6802   7.0309   7.0309  10.1966
    10.6610  11.5872  11.5874

          k = 0.4000 0.4000 0.4000 (  1583 PWs)   bands (ev):

   -40.2058 -18.9242 -18.9222 -18.9222   5.6840   7.0883   7.0883  10.0477
    11.1121  11.3133  11.3134

          k = 0.4000 0.4000-0.5000 (  1582 PWs)   bands (ev):

   -40.2046 -18.9368 -18.9216 -18.9203   6.0133   6.9107   7.0435   9.8325
    11.1281  11.3607  11.8285

          k = 0.4000-0.5000-0.5000 (  1596 PWs)   bands (ev):

   -40.2035 -18.9348 -18.9348 -18.9192   6.3807   6.8913   6.8913   9.3777
    11.2972  11.9586  12.9294

          k =-0.5000-0.5000-0.5000 (  1568 PWs)   bands (ev):

   -40.2023 -18.9327 -18.9327 -18.9327   6.8403   6.8403   6.8403   8.7181
    12.1267  12.1267  12.9351

     the Fermi energy is     9.3178 ev

!    total energy              =    -196.52505881 Ry
     total all-electron energy =     -2014.156622 Ry
     estimated scf accuracy    <          7.5E-09 Ry
     smearing contrib. (-TS)   =       0.00028912 Ry
     internal energy E=F+TS    =    -196.52534793 Ry

     The total energy is F=E-TS. E is the sum of the following terms:
     one-electron contribution =     -40.40624966 Ry
     hartree contribution      =      24.54885093 Ry
     xc contribution           =     -20.08683535 Ry
     ewald contribution        =     -65.64543633 Ry
     one-center paw contrib.   =     -94.93567751 Ry

     convergence has been achieved in  10 iterations

     Forces acting on atoms (cartesian axes, Ry/au):

     atom    1 type  1   force =     0.00000000    0.00000000    0.00000000
     atom    2 type  2   force =     0.00000000    0.00000000    0.00000000

     Total force =     0.000000     Total SCF correction =     0.000000


     Computing stress (Cartesian axis) and pressure

          total   stress  (Ry/bohr**3)                   (kbar)     P=      -16.36
  -0.00011123   0.00000000   0.00000000          -16.36        0.00        0.00
   0.00000000  -0.00011123   0.00000000            0.00      -16.36        0.00
   0.00000000   0.00000000  -0.00011123            0.00        0.00      -16.36


     Writing all to output data dir ./tmp_3.400/scal_3.400.save/ :
     XML data file, charge density, pseudopotentials, collected wavefunctions

     init_run     :    659.32s CPU    116.08s WALL (       1 calls)
     electrons    :  18391.80s CPU   3136.95s WALL (       1 calls)
     forces       :     27.06s CPU      6.84s WALL (       1 calls)
     stress       :      6.52s CPU      1.32s WALL (       1 calls)

     Called by init_run:
     wfcinit      :    521.87s CPU     90.63s WALL (       1 calls)
     potinit      :     65.99s CPU     10.04s WALL (       1 calls)
     hinit0       :     69.82s CPU     13.68s WALL (       1 calls)

     Called by electrons:
     c_bands      :  15665.00s CPU   2670.16s WALL (      11 calls)
     sum_band     :   2647.30s CPU    451.50s WALL (      11 calls)
     v_of_rho     :     30.04s CPU      7.03s WALL (      11 calls)
     newd         :      4.92s CPU      2.40s WALL (      11 calls)
     PAW_pot      :     40.73s CPU      6.66s WALL (      11 calls)
     mix_rho      :      6.72s CPU      1.09s WALL (      11 calls)

     Called by c_bands:
     init_us_2    :      0.74s CPU      0.22s WALL (    1400 calls)
     cegterg      :  15663.50s CPU   2669.72s WALL (     616 calls)

     Called by *egterg:
     cdiaghg      :     10.55s CPU      2.85s WALL (    3805 calls)
     h_psi        :  14922.96s CPU   2542.04s WALL (    3917 calls)
     s_psi        :      8.18s CPU      0.62s WALL (    3917 calls)
     g_psi        :      0.40s CPU      0.03s WALL (    3245 calls)

     Called by h_psi:
     h_psi:calbec :    161.55s CPU     35.56s WALL (    3917 calls)
     vloc_psi     :  14291.42s CPU   2426.95s WALL (    3917 calls)
                                        0.00s GPU  (    3917 calls)
     add_vuspsi   :      2.44s CPU      0.72s WALL (    3917 calls)

     General routines
     calbec       :    185.89s CPU     41.23s WALL (    5485 calls)
     fft          :    110.82s CPU     26.10s WALL (     167 calls)
     ffts         :     63.85s CPU      9.74s WALL (      22 calls)
     fftw         :  13410.56s CPU   2270.58s WALL (   50898 calls)
     interpolate  :     63.99s CPU      9.74s WALL (      11 calls)

     Parallel routines

     PWSCF        :      5h18m CPU  54m23.70s WALL


   This run was terminated on:  22:26:33   6Sep2026            

=------------------------------------------------------------------------------=
   JOB DONE.
=------------------------------------------------------------------------------=
