
     Program PWSCF v.7.5 starts on  8Sep2026 at 21:23:56 

     This program is part of the open-source Quantum ESPRESSO suite
     for quantum simulation of materials; please cite
         "P. Giannozzi et al., J. Phys.:Condens. Matter 21 395502 (2009);
         "P. Giannozzi et al., J. Phys.:Condens. Matter 29 465901 (2017);
         "P. Giannozzi et al., J. Chem. Phys. 152 154105 (2020);
          URL http://www.quantum-espresso.org", 
     in publications or presentations arising from this work. More details at
     http://www.quantum-espresso.org/quote

     Parallel version (MPI & OpenMP), running on       2 processor cores
     Number of MPI processes:                 2
     Threads/MPI process:                     1

     MPI processes distributed on     1 nodes
     14726 MiB available memory on the printing compute node when the environment starts

     Waiting for input...
     Reading input from standard input

     Current dimensions of program PWSCF are:
     Max number of different atomic species (ntypx) = 10
     Max number of k-points (npk) =  40000
     Max angular momentum in pseudopotentials (lmaxx) =  4
     file Co.pbe-spn-kjpaw_psl.0.3.1.UPF: wavefunction(s)  3P 3D renormalized

     R & G space division:  proc/nbgrp/npool/nimage =       2
     Subspace diagonalization in iterative solution of the eigenvalue problem:
     a serial algorithm will be used


     Parallelization info
     --------------------
     sticks:   dense  smooth     PW     G-vecs:    dense   smooth      PW
     Min         279     141     43                 8629     3019     552
     Max         280     142     48                 8632     3020     553
     Sum         559     283     91                17261     6039    1105

     Using Slab Decomposition



     bravais-lattice index     =            4
     lattice parameter (alat)  =       4.7375  a.u.
     unit-cell volume          =     149.4595 (a.u.)^3
     number of atoms/cell      =            2
     number of atomic types    =            1
     number of electrons       =        34.00
     number of Kohn-Sham states=           21
     kinetic-energy cutoff     =      45.0000  Ry
     charge density cutoff     =     360.0000  Ry
     scf convergence threshold =      1.0E-07
     mixing beta               =       0.7000
     number of iterations used =            8  plain     mixing
     Exchange-correlation= SLA  PW   PBX  PBC
                           (   1   4   3   4   0   0   0)

     celldm(1)=   4.737543  celldm(2)=   0.000000  celldm(3)=   1.623055
     celldm(4)=   0.000000  celldm(5)=   0.000000  celldm(6)=   0.000000

     crystal axes: (cart. coord. in units of alat)
               a(1) = (   1.000000   0.000000   0.000000 )  
               a(2) = (  -0.500000   0.866025   0.000000 )  
               a(3) = (   0.000000   0.000000   1.623055 )  

     reciprocal axes: (cart. coord. in units 2 pi/alat)
               b(1) = (  1.000000  0.577350 -0.000000 )  
               b(2) = (  0.000000  1.154701  0.000000 )  
               b(3) = (  0.000000 -0.000000  0.616122 )  


     PseudoPot. # 1 for Co read from file:
     /home/jdmin2003/qe-work/pseudo/Co.pbe-spn-kjpaw_psl.0.3.1.UPF
     MD5 check sum: 3c0a43779828c046024e4f3be63f8e67
     Pseudo is Projector augmented-wave + core cor, Zval = 17.0
     Generated using &quot;atomic&quot; code by A. Dal Corso  v.6.2.2
     Shape of augmentation charge: PSQ
     Using radial grid of 1193 points,  6 beta functions with: 
                l(1) =   0
                l(2) =   0
                l(3) =   1
                l(4) =   1
                l(5) =   2
                l(6) =   2
     Q(r) pseudized with 0 coefficients 


     atomic species   valence    mass     pseudopotential
     Co               17.00    58.93320     Co( 1.00)

     24 Sym. Ops., with inversion, found (12 have fractional translation)



   Cartesian axes

     site n.     atom                  positions (alat units)
         1        Co     tau(   1) = (  -0.0000000   0.5773503   0.4057639  )
         2        Co     tau(   2) = (   0.5000000   0.2886751   1.2172916  )

     number of k points=    95  Marzari-Vanderbilt smearing, width (Ry)=  0.0200
                       cart. coord. in units 2pi/alat
        k(    1) = (   0.0000000   0.0000000   0.0000000), wk =   0.0017361
        k(    2) = (   0.0000000   0.0000000   0.0770152), wk =   0.0034722
        k(    3) = (   0.0000000   0.0000000   0.1540305), wk =   0.0034722
        k(    4) = (   0.0000000   0.0000000   0.2310457), wk =   0.0034722
        k(    5) = (   0.0000000   0.0000000  -0.3080609), wk =   0.0017361
        k(    6) = (   0.0000000   0.0962250   0.0000000), wk =   0.0104167
        k(    7) = (   0.0000000   0.0962250   0.0770152), wk =   0.0208333
        k(    8) = (   0.0000000   0.0962250   0.1540305), wk =   0.0208333
        k(    9) = (   0.0000000   0.0962250   0.2310457), wk =   0.0208333
        k(   10) = (   0.0000000   0.0962250  -0.3080609), wk =   0.0104167
        k(   11) = (   0.0000000   0.1924501   0.0000000), wk =   0.0104167
        k(   12) = (   0.0000000   0.1924501   0.0770152), wk =   0.0208333
        k(   13) = (   0.0000000   0.1924501   0.1540305), wk =   0.0208333
        k(   14) = (   0.0000000   0.1924501   0.2310457), wk =   0.0208333
        k(   15) = (   0.0000000   0.1924501  -0.3080609), wk =   0.0104167
        k(   16) = (   0.0000000   0.2886751   0.0000000), wk =   0.0104167
        k(   17) = (   0.0000000   0.2886751   0.0770152), wk =   0.0208333
        k(   18) = (   0.0000000   0.2886751   0.1540305), wk =   0.0208333
        k(   19) = (   0.0000000   0.2886751   0.2310457), wk =   0.0208333
        k(   20) = (   0.0000000   0.2886751  -0.3080609), wk =   0.0104167
        k(   21) = (   0.0000000   0.3849002   0.0000000), wk =   0.0104167
        k(   22) = (   0.0000000   0.3849002   0.0770152), wk =   0.0208333
        k(   23) = (   0.0000000   0.3849002   0.1540305), wk =   0.0208333
        k(   24) = (   0.0000000   0.3849002   0.2310457), wk =   0.0208333
        k(   25) = (   0.0000000   0.3849002  -0.3080609), wk =   0.0104167
        k(   26) = (   0.0000000   0.4811252   0.0000000), wk =   0.0104167
        k(   27) = (   0.0000000   0.4811252   0.0770152), wk =   0.0208333
        k(   28) = (   0.0000000   0.4811252   0.1540305), wk =   0.0208333
        k(   29) = (   0.0000000   0.4811252   0.2310457), wk =   0.0208333
        k(   30) = (   0.0000000   0.4811252  -0.3080609), wk =   0.0104167
        k(   31) = (   0.0000000  -0.5773503   0.0000000), wk =   0.0052083
        k(   32) = (   0.0000000  -0.5773503   0.0770152), wk =   0.0104167
        k(   33) = (   0.0000000  -0.5773503   0.1540305), wk =   0.0104167
        k(   34) = (   0.0000000  -0.5773503   0.2310457), wk =   0.0104167
        k(   35) = (   0.0000000  -0.5773503  -0.3080609), wk =   0.0052083
        k(   36) = (   0.0833333   0.1443376   0.0000000), wk =   0.0104167
        k(   37) = (   0.0833333   0.1443376   0.0770152), wk =   0.0208333
        k(   38) = (   0.0833333   0.1443376   0.1540305), wk =   0.0208333
        k(   39) = (   0.0833333   0.1443376   0.2310457), wk =   0.0208333
        k(   40) = (   0.0833333   0.1443376  -0.3080609), wk =   0.0104167
        k(   41) = (   0.0833333   0.2405626   0.0000000), wk =   0.0208333
        k(   42) = (   0.0833333   0.2405626   0.0770152), wk =   0.0416667
        k(   43) = (   0.0833333   0.2405626   0.1540305), wk =   0.0416667
        k(   44) = (   0.0833333   0.2405626   0.2310457), wk =   0.0416667
        k(   45) = (   0.0833333   0.2405626  -0.3080609), wk =   0.0208333
        k(   46) = (   0.0833333   0.3367877   0.0000000), wk =   0.0208333
        k(   47) = (   0.0833333   0.3367877   0.0770152), wk =   0.0416667
        k(   48) = (   0.0833333   0.3367877   0.1540305), wk =   0.0416667
        k(   49) = (   0.0833333   0.3367877   0.2310457), wk =   0.0416667
        k(   50) = (   0.0833333   0.3367877  -0.3080609), wk =   0.0208333
        k(   51) = (   0.0833333   0.4330127   0.0000000), wk =   0.0208333
        k(   52) = (   0.0833333   0.4330127   0.0770152), wk =   0.0416667
        k(   53) = (   0.0833333   0.4330127   0.1540305), wk =   0.0416667
        k(   54) = (   0.0833333   0.4330127   0.2310457), wk =   0.0416667
        k(   55) = (   0.0833333   0.4330127  -0.3080609), wk =   0.0208333
        k(   56) = (   0.0833333   0.5292377   0.0000000), wk =   0.0208333
        k(   57) = (   0.0833333   0.5292377   0.0770152), wk =   0.0416667
        k(   58) = (   0.0833333   0.5292377   0.1540305), wk =   0.0416667
        k(   59) = (   0.0833333   0.5292377   0.2310457), wk =   0.0416667
        k(   60) = (   0.0833333   0.5292377  -0.3080609), wk =   0.0208333
        k(   61) = (   0.1666667   0.2886751   0.0000000), wk =   0.0104167
        k(   62) = (   0.1666667   0.2886751   0.0770152), wk =   0.0208333
        k(   63) = (   0.1666667   0.2886751   0.1540305), wk =   0.0208333
        k(   64) = (   0.1666667   0.2886751   0.2310457), wk =   0.0208333
        k(   65) = (   0.1666667   0.2886751  -0.3080609), wk =   0.0104167
        k(   66) = (   0.1666667   0.3849002   0.0000000), wk =   0.0208333
        k(   67) = (   0.1666667   0.3849002   0.0770152), wk =   0.0416667
        k(   68) = (   0.1666667   0.3849002   0.1540305), wk =   0.0416667
        k(   69) = (   0.1666667   0.3849002   0.2310457), wk =   0.0416667
        k(   70) = (   0.1666667   0.3849002  -0.3080609), wk =   0.0208333
        k(   71) = (   0.1666667   0.4811252   0.0000000), wk =   0.0208333
        k(   72) = (   0.1666667   0.4811252   0.0770152), wk =   0.0416667
        k(   73) = (   0.1666667   0.4811252   0.1540305), wk =   0.0416667
        k(   74) = (   0.1666667   0.4811252   0.2310457), wk =   0.0416667
        k(   75) = (   0.1666667   0.4811252  -0.3080609), wk =   0.0208333
        k(   76) = (   0.1666667   0.5773503   0.0000000), wk =   0.0104167
        k(   77) = (   0.1666667   0.5773503   0.0770152), wk =   0.0208333
        k(   78) = (   0.1666667   0.5773503   0.1540305), wk =   0.0208333
        k(   79) = (   0.1666667   0.5773503   0.2310457), wk =   0.0208333
        k(   80) = (   0.1666667   0.5773503  -0.3080609), wk =   0.0104167
        k(   81) = (   0.2500000   0.4330127   0.0000000), wk =   0.0104167
        k(   82) = (   0.2500000   0.4330127   0.0770152), wk =   0.0208333
        k(   83) = (   0.2500000   0.4330127   0.1540305), wk =   0.0208333
        k(   84) = (   0.2500000   0.4330127   0.2310457), wk =   0.0208333
        k(   85) = (   0.2500000   0.4330127  -0.3080609), wk =   0.0104167
        k(   86) = (   0.2500000   0.5292377   0.0000000), wk =   0.0208333
        k(   87) = (   0.2500000   0.5292377   0.0770152), wk =   0.0416667
        k(   88) = (   0.2500000   0.5292377   0.1540305), wk =   0.0416667
        k(   89) = (   0.2500000   0.5292377   0.2310457), wk =   0.0416667
        k(   90) = (   0.2500000   0.5292377  -0.3080609), wk =   0.0208333
        k(   91) = (   0.3333333   0.5773503   0.0000000), wk =   0.0034722
        k(   92) = (   0.3333333   0.5773503   0.0770152), wk =   0.0069444
        k(   93) = (   0.3333333   0.5773503   0.1540305), wk =   0.0069444
        k(   94) = (   0.3333333   0.5773503   0.2310457), wk =   0.0069444
        k(   95) = (   0.3333333   0.5773503  -0.3080609), wk =   0.0034722

     Dense  grid:    17261 G-vectors     FFT dimensions: (  30,  30,  48)

     Smooth grid:     6039 G-vectors     FFT dimensions: (  24,  24,  36)

     Estimated max dynamical RAM per process >      43.24 MB

     Estimated total dynamical RAM >      86.49 MB

     Check: negative core charge=   -0.000066

     Initial potential from superposition of free atoms

     starting charge      33.9994, renormalised to      34.0000
     Starting wfcs are   20 randomized atomic wfcs +    1 random wfcs
     Checking if some PAW data can be deallocated... 

     total cpu time spent up to now is        0.7 secs

     per-process dynamical memory:    26.8 Mb

     Self-consistent Calculation

     iteration #  1     ecut=    45.00 Ry     beta= 0.70
     Davidson diagonalization with overlap
     ethr =  1.00E-02,  avg # of iterations =  4.1

     Threshold (ethr) on eigenvalues was too large:
     Diagonalizing with lowered threshold

     Davidson diagonalization with overlap
     ethr =  2.78E-05,  avg # of iterations =  6.4

     total cpu time spent up to now is        3.7 secs

     total energy              =    -753.15370843 Ry
     estimated scf accuracy    <       0.02369454 Ry

     iteration #  2     ecut=    45.00 Ry     beta= 0.70
     Davidson diagonalization with overlap
     ethr =  6.97E-05,  avg # of iterations =  4.1

     total cpu time spent up to now is        5.2 secs

     total energy              =    -753.15160504 Ry
     estimated scf accuracy    <       0.07828540 Ry

     iteration #  3     ecut=    45.00 Ry     beta= 0.70
     Davidson diagonalization with overlap
     ethr =  6.97E-05,  avg # of iterations =  3.4

     total cpu time spent up to now is        6.4 secs

     total energy              =    -753.16475760 Ry
     estimated scf accuracy    <       0.00023063 Ry

     iteration #  4     ecut=    45.00 Ry     beta= 0.70
     Davidson diagonalization with overlap
     ethr =  6.78E-07,  avg # of iterations =  4.8

     total cpu time spent up to now is        8.0 secs

     total energy              =    -753.16495502 Ry
     estimated scf accuracy    <       0.00037260 Ry

     iteration #  5     ecut=    45.00 Ry     beta= 0.70
     Davidson diagonalization with overlap
     ethr =  6.78E-07,  avg # of iterations =  1.6

     total cpu time spent up to now is        8.9 secs

     total energy              =    -753.16494855 Ry
     estimated scf accuracy    <       0.00007515 Ry

     iteration #  6     ecut=    45.00 Ry     beta= 0.70
     Davidson diagonalization with overlap
     ethr =  2.21E-07,  avg # of iterations =  2.5

     total cpu time spent up to now is       10.1 secs

     total energy              =    -753.16496755 Ry
     estimated scf accuracy    <       0.00000196 Ry

     iteration #  7     ecut=    45.00 Ry     beta= 0.70
     Davidson diagonalization with overlap
     ethr =  5.76E-09,  avg # of iterations =  4.2

     total cpu time spent up to now is       11.5 secs

     total energy              =    -753.16496812 Ry
     estimated scf accuracy    <       0.00000242 Ry

     iteration #  8     ecut=    45.00 Ry     beta= 0.70
     Davidson diagonalization with overlap
     ethr =  5.76E-09,  avg # of iterations =  1.0

     total cpu time spent up to now is       12.5 secs

     total energy              =    -753.16496750 Ry
     estimated scf accuracy    <       0.00000180 Ry

     iteration #  9     ecut=    45.00 Ry     beta= 0.70
     Davidson diagonalization with overlap
     ethr =  5.31E-09,  avg # of iterations =  2.0

     total cpu time spent up to now is       13.5 secs

     End of self-consistent calculation

          k = 0.0000 0.0000 0.0000 (   737 PWs)   bands (ev):

   -76.9701 -76.9190 -40.3486 -40.0673 -40.0673 -40.0129 -39.9967 -39.9967
     9.3813  13.7132  16.5746  16.5746  16.6162  17.0169  17.0169  17.3874
    17.3874  17.9333  18.3212  18.3212  24.9039

          k = 0.0000 0.0000 0.0770 (   743 PWs)   bands (ev):

   -76.9684 -76.9209 -40.3461 -40.0609 -40.0609 -40.0415 -40.0036 -40.0036
     9.5295  13.5928  16.5178  16.5524  16.5524  16.9519  16.9519  17.4175
    17.4175  17.4564  18.3524  18.3524  25.6575

          k = 0.0000 0.0000 0.1540 (   754 PWs)   bands (ev):

   -76.9631 -76.9267 -40.3144 -40.0708 -40.0602 -40.0602 -40.0210 -40.0210
     9.9744  13.2551  16.3716  16.4673  16.4673  16.6147  16.7519  16.7519
    17.6432  17.6432  18.3182  18.3182  27.6361

          k = 0.0000 0.0000 0.2310 (   754 PWs)   bands (ev):

   -76.9546 -76.9352 -40.2617 -40.1140 -40.0530 -40.0530 -40.0296 -40.0296
    10.6907  12.5477  16.1299  16.2722  16.4583  16.4583  16.6166  16.6166
    17.8790  17.8790  18.2150  18.2150  30.1831

          k = 0.0000 0.0000-0.3081 (   772 PWs)   bands (ev):

   -76.9453 -76.9453 -40.2047 -40.2047 -40.0448 -40.0448 -40.0448 -40.0448
    11.5991  11.5991  16.0379  16.0379  16.4889  16.4889  16.4889  16.4889
    18.0366  18.0366  18.0366  18.0366  33.0046

          k = 0.0000 0.0962 0.0000 (   747 PWs)   bands (ev):

   -76.9676 -76.9175 -40.3506 -40.0737 -40.0698 -40.0311 -40.0281 -40.0098
     9.6111  13.8336  16.3384  16.7194  16.7570  16.9314  16.9362  17.0278
    17.2358  17.3345  18.3641  19.5083  24.8610

          k = 0.0000 0.0962 0.0770 (   747 PWs)   bands (ev):

   -76.9657 -76.9194 -40.3397 -40.0720 -40.0655 -40.0457 -40.0249 -40.0164
     9.7615  13.7590  16.3364  16.6087  16.6520  16.6656  16.9740  17.0200
    17.3555  17.4138  18.3832  19.1723  25.7330

          k = 0.0000 0.0962 0.1540 (   748 PWs)   bands (ev):

   -76.9603 -76.9249 -40.3092 -40.0785 -40.0677 -40.0601 -40.0325 -40.0195
    10.2063  13.4497  16.1807  16.3615  16.4336  16.5906  16.8566  16.8753
    17.6018  17.6163  18.3404  18.6995  27.7659

          k = 0.0000 0.0962 0.2310 (   755 PWs)   bands (ev):

   -76.9522 -76.9333 -40.2613 -40.1277 -40.0692 -40.0551 -40.0411 -40.0287
    10.9122  12.7410  15.9085  16.2158  16.3937  16.5485  16.6696  16.7096
    17.8646  17.8697  18.2158  18.3675  30.3313

          k = 0.0000 0.0962-0.3081 (   758 PWs)   bands (ev):

   -76.9428 -76.9428 -40.1950 -40.1950 -40.0496 -40.0496 -40.0488 -40.0488
    11.8063  11.8063  15.9888  15.9888  16.4825  16.4825  16.5976  16.5976
    18.0336  18.0336  18.1510  18.1510  33.1858

          k = 0.0000 0.1925 0.0000 (   757 PWs)   bands (ev):

   -76.9595 -76.9141 -40.3329 -40.1284 -40.0809 -40.0772 -40.0418 -40.0234
    10.3017  14.2178  16.0210  16.0422  16.6625  16.9899  17.0402  17.0408
    17.1139  17.3245  18.4535  21.0296  24.9612

          k = 0.0000 0.1925 0.0770 (   754 PWs)   bands (ev):

   -76.9576 -76.9158 -40.3236 -40.1265 -40.0893 -40.0775 -40.0387 -40.0215
    10.4481  14.1733  15.8685  16.0426  16.6479  16.8594  16.8986  17.1645
    17.3425  17.3455  18.4445  20.4116  25.9930

          k = 0.0000 0.1925 0.1540 (   752 PWs)   bands (ev):

   -76.9527 -76.9206 -40.2983 -40.1140 -40.1103 -40.0715 -40.0473 -40.0300
    10.8693  13.9204  15.5980  16.1173  16.4052  16.7919  16.8080  17.1086
    17.5392  17.6586  18.3493  19.4863  28.1651

          k = 0.0000 0.1925 0.2310 (   750 PWs)   bands (ev):

   -76.9453 -76.9279 -40.2546 -40.1558 -40.0915 -40.0636 -40.0602 -40.0381
    11.5378  13.2638  15.5951  16.0773  16.2631  16.6430  16.7938  16.9718
    17.8207  17.9547  18.2202  18.8140  30.7887

          k = 0.0000 0.1925-0.3081 (   750 PWs)   bands (ev):

   -76.9366 -76.9366 -40.2041 -40.2041 -40.0759 -40.0759 -40.0526 -40.0526
    12.3822  12.3822  15.8137  15.8137  16.4267  16.4267  16.8583  16.8583
    18.0305  18.0305  18.3325  18.3325  33.6359

          k = 0.0000 0.2887 0.0000 (   763 PWs)   bands (ev):

   -76.9478 -76.9095 -40.3035 -40.1876 -40.1380 -40.0981 -40.0577 -40.0383
    11.3681  14.5947  15.3416  15.7376  16.5246  16.7961  16.9049  17.4501
    17.4633  17.7201  18.5038  22.7626  25.1715

          k = 0.0000 0.2887 0.0770 (   760 PWs)   bands (ev):

   -76.9463 -76.9109 -40.2972 -40.1856 -40.1446 -40.0915 -40.0559 -40.0384
    11.4957  14.6032  15.2507  15.7631  16.4303  16.8265  16.8957  17.4956
    17.5444  17.7035  18.5077  21.7419  26.5130

          k = 0.0000 0.2887 0.1540 (   755 PWs)   bands (ev):

   -76.9420 -76.9150 -40.2880 -40.1732 -40.1526 -40.0886 -40.0602 -40.0388
    11.8666  14.3977  15.1871  15.8741  16.2915  16.8097  16.8987  17.4972
    17.7347  17.7742  18.3875  20.3774  28.8201

          k = 0.0000 0.2887 0.2310 (   757 PWs)   bands (ev):

   -76.9359 -76.9212 -40.2649 -40.2036 -40.1284 -40.0819 -40.0804 -40.0514
    12.4312  13.8467  15.3689  15.8620  16.2125  16.6154  17.0051  17.3004
    17.8865  18.0968  18.2348  19.3253  31.2978

          k = 0.0000 0.2887-0.3081 (   758 PWs)   bands (ev):

   -76.9286 -76.9286 -40.2365 -40.2365 -40.1036 -40.1036 -40.0656 -40.0656
    13.1336  13.1336  15.6256  15.6256  16.3865  16.3865  17.1315  17.1315
    18.0796  18.0796  18.5853  18.5853  32.6069

          k = 0.0000 0.3849 0.0000 (   759 PWs)   bands (ev):

   -76.9353 -76.9054 -40.2616 -40.2462 -40.1964 -40.1030 -40.0723 -40.0510
    12.6150  14.6233  14.8726  15.7124  16.6051  16.6173  16.7106  18.0031
    18.0758  18.1462  18.6216  24.6435  25.1875

          k = 0.0000 0.3849 0.0770 (   765 PWs)   bands (ev):

   -76.9343 -76.9067 -40.2823 -40.2268 -40.2033 -40.1097 -40.0724 -40.0551
    12.6935  14.5952  14.8861  15.6879  16.5107  16.6595  16.8532  17.9936
    18.0653  18.0722  18.5321  22.9749  26.8503

          k = 0.0000 0.3849 0.1540 (   758 PWs)   bands (ev):

   -76.9307 -76.9099 -40.2948 -40.2290 -40.1804 -40.1040 -40.0709 -40.0547
    12.9332  14.4244  15.0074  15.6925  16.4751  16.8332  17.0745  17.9137
    18.0705  18.0867  18.4369  21.2959  27.9442

          k = 0.0000 0.3849 0.2310 (   761 PWs)   bands (ev):

   -76.9261 -76.9146 -40.2984 -40.2581 -40.1393 -40.0912 -40.0905 -40.0677
    13.2717  14.0850  15.2609  15.6478  16.5490  17.0439  17.0471  17.6334
    18.1439  18.3016  18.3564  19.9280  28.6523

          k = 0.0000 0.3849-0.3081 (   760 PWs)   bands (ev):

   -76.9204 -76.9204 -40.2813 -40.2813 -40.1109 -40.1109 -40.0793 -40.0793
    13.6822  13.6822  15.4881  15.4881  16.8046  16.8046  17.3379  17.3379
    18.2436  18.2436  18.9302  18.9302  29.4924

          k = 0.0000 0.4811 0.0000 (   768 PWs)   bands (ev):

   -76.9252 -76.9039 -40.2931 -40.2398 -40.2300 -40.1289 -40.0959 -40.0630
    13.6183  14.4056  14.6046  15.8882  16.4632  16.5555  16.8130  18.3214
    18.4921  18.6018  19.0280  23.4688  26.5715

          k = 0.0000 0.4811 0.0770 (   768 PWs)   bands (ev):

   -76.9244 -76.9047 -40.3057 -40.2517 -40.2071 -40.1284 -40.0930 -40.0678
    13.5983  14.3713  14.7618  15.6279  16.5189  16.7913  16.9743  18.3234
    18.4069  18.5644  18.9388  22.9972  26.0997

          k = 0.0000 0.4811 0.1540 (   765 PWs)   bands (ev):

   -76.9220 -76.9069 -40.3199 -40.2755 -40.1701 -40.1207 -40.0963 -40.0658
    13.6021  14.2972  15.0399  15.4257  16.7109  16.8124  17.6497  18.1244
    18.3982  18.5438  18.6516  21.8455  25.9956

          k = 0.0000 0.4811 0.2310 (   760 PWs)   bands (ev):

   -76.9184 -76.9103 -40.3248 -40.2963 -40.1399 -40.1031 -40.0974 -40.0734
    13.6960  14.1028  15.1732  15.4654  17.0405  17.0466  17.7806  18.0971
    18.4548  18.5313  18.5490  20.5780  26.3100

          k = 0.0000 0.4811-0.3081 (   756 PWs)   bands (ev):

   -76.9142 -76.9142 -40.3141 -40.3141 -40.1091 -40.1091 -40.0881 -40.0881
    13.8642  13.8642  15.3641  15.3641  17.4052  17.4052  17.5802  17.5802
    18.4956  18.4956  19.4663  19.4663  26.9061

          k = 0.0000-0.5774 0.0000 (   750 PWs)   bands (ev):

   -76.9204 -76.9034 -40.2992 -40.2422 -40.2100 -40.1307 -40.0917 -40.0568
    14.0283  14.2791  14.5598  16.0578  16.4755  16.5631  16.9444  18.5320
    18.6168  18.6529  20.0494  21.8928  27.8068

          k = 0.0000-0.5774 0.0770 (   762 PWs)   bands (ev):

   -76.9201 -76.9042 -40.3162 -40.2624 -40.1897 -40.1341 -40.1016 -40.0652
    13.8912  14.2731  14.7831  15.6377  16.4774  16.9019  17.0963  18.4448
    18.5440  18.6391  19.8789  21.7642  27.2907

          k = 0.0000-0.5774 0.1540 (   766 PWs)   bands (ev):

   -76.9184 -76.9062 -40.3343 -40.2905 -40.1641 -40.1221 -40.1004 -40.0731
    13.7581  14.2604  15.1718  15.2355  16.6695  16.9154  17.9494  18.1903
    18.5166  18.6264  19.4213  21.3968  26.6369

          k = 0.0000-0.5774 0.2310 (   770 PWs)   bands (ev):

   -76.9156 -76.9091 -40.3443 -40.3163 -40.1447 -40.1108 -40.1027 -40.0826
    13.7551  14.0974  15.1388  15.3581  17.0270  17.2164  17.8038  18.5222
    18.5316  18.6010  19.0523  20.7503  25.9409

          k = 0.0000-0.5774-0.3081 (   760 PWs)   bands (ev):

   -76.9121 -76.9121 -40.3329 -40.3329 -40.1104 -40.1104 -40.0923 -40.0923
    13.8970  13.8970  15.2932  15.2932  17.4381  17.4381  17.8696  17.8696
    18.5917  18.5917  19.9061  19.9061  25.7278

          k = 0.0833 0.1443 0.0000 (   749 PWs)   bands (ev):

   -76.9620 -76.9149 -40.3331 -40.1081 -40.0789 -40.0590 -40.0344 -40.0219
    10.0758  14.1205  16.1223  16.2768  16.7689  16.9071  16.9072  16.9812
    17.2398  17.3248  18.4353  20.6067  24.9490

          k = 0.0833 0.1443 0.0770 (   753 PWs)   bands (ev):

   -76.9603 -76.9168 -40.3285 -40.1052 -40.0819 -40.0665 -40.0381 -40.0279
    10.2205  14.0538  16.0765  16.1341  16.6781  16.8046  16.8466  17.0932
    17.3225  17.3697  18.4099  20.0739  25.9021

          k = 0.0833 0.1443 0.1540 (   754 PWs)   bands (ev):

   -76.9552 -76.9221 -40.3009 -40.1007 -40.1000 -40.0700 -40.0428 -40.0331
    10.6515  13.7717  15.7529  16.1640  16.4130  16.7402  16.7860  17.0150
    17.5919  17.6190  18.3397  19.2466  28.0319

          k = 0.0833 0.1443 0.2310 (   751 PWs)   bands (ev):

   -76.9475 -76.9296 -40.2560 -40.1443 -40.0823 -40.0647 -40.0514 -40.0392
    11.3351  13.1049  15.6581  16.1218  16.2764  16.6113  16.7563  16.8921
    17.8526  17.9131  18.2420  18.6889  30.6406

          k = 0.0833 0.1443-0.3081 (   750 PWs)   bands (ev):

   -76.9385 -76.9385 -40.1978 -40.1978 -40.0674 -40.0674 -40.0526 -40.0526
    12.1992  12.1992  15.8669  15.8669  16.4239  16.4239  16.7898  16.7898
    18.0487  18.0487  18.2763  18.2763  33.5082

          k = 0.0833 0.2406 0.0000 (   762 PWs)   bands (ev):

   -76.9523 -76.9111 -40.3144 -40.1606 -40.1231 -40.0881 -40.0517 -40.0395
    10.9580  14.5164  15.5819  15.7708  16.5850  16.7246  17.1219  17.1446
    17.3250  17.6364  18.4688  22.1303  25.1045

          k = 0.0833 0.2406 0.0770 (   758 PWs)   bands (ev):

   -76.9506 -76.9125 -40.3067 -40.1492 -40.1269 -40.0886 -40.0520 -40.0422
    11.0925  14.5041  15.4642  15.8169  16.5280  16.7158  16.9927  17.2585
    17.4745  17.6247  18.4416  21.2901  26.3133

          k = 0.0833 0.2406 0.1540 (   755 PWs)   bands (ev):

   -76.9460 -76.9170 -40.2884 -40.1482 -40.1332 -40.0884 -40.0548 -40.0453
    11.4884  14.2916  15.3030  15.8895  16.3419  16.6831  16.9121  17.3026
    17.6816  17.7418  18.3771  20.0804  28.5888

          k = 0.0833 0.2406 0.2310 (   753 PWs)   bands (ev):

   -76.9393 -76.9236 -40.2566 -40.1830 -40.1134 -40.0820 -40.0628 -40.0549
    12.1085  13.6831  15.4307  15.9446  16.1677  16.5188  16.9615  17.1888
    17.8788  18.0321  18.2706  19.1459  31.2250

          k = 0.0833 0.2406-0.3081 (   750 PWs)   bands (ev):

   -76.9314 -76.9314 -40.2186 -40.2186 -40.0916 -40.0916 -40.0619 -40.0619
    12.8828  12.8828  15.7094  15.7094  16.3106  16.3106  17.0610  17.0610
    18.0950  18.0950  18.5000  18.5000  33.8721

          k = 0.0833 0.3368 0.0000 (   766 PWs)   bands (ev):

   -76.9401 -76.9070 -40.2807 -40.2188 -40.1783 -40.1127 -40.0663 -40.0539
    12.1392  14.7318  15.0645  15.5711  16.5231  16.5558  16.9059  17.5551
    17.8187  18.1632  18.4885  23.9108  25.3844

          k = 0.0833 0.3368 0.0770 (   762 PWs)   bands (ev):

   -76.9387 -76.9082 -40.2795 -40.2073 -40.1803 -40.1114 -40.0652 -40.0545
    12.2468  14.7415  15.0189  15.6138  16.3808  16.6916  16.8886  17.5751
    17.8871  18.1099  18.4997  22.5825  26.9767

          k = 0.0833 0.3368 0.1540 (   761 PWs)   bands (ev):

   -76.9351 -76.9117 -40.2869 -40.2045 -40.1714 -40.1051 -40.0721 -40.0583
    12.5505  14.5578  15.0622  15.7029  16.2557  16.7453  16.8698  17.6117
    17.9978  18.0308  18.4988  20.9969  29.1367

          k = 0.0833 0.3368 0.2310 (   761 PWs)   bands (ev):

   -76.9297 -76.9171 -40.2789 -40.2350 -40.1386 -40.1011 -40.0817 -40.0657
    13.0162  14.1156  15.3077  15.7447  16.1920  16.5729  17.0579  17.4907
    18.0980  18.2321  18.4117  19.7362  30.2806

          k = 0.0833 0.3368-0.3081 (   756 PWs)   bands (ev):

   -76.9233 -76.9233 -40.2568 -40.2568 -40.1098 -40.1098 -40.0764 -40.0764
    13.5709  13.5709  15.5852  15.5852  16.3597  16.3597  17.2794  17.2794
    18.2542  18.2542  18.8388  18.8388  31.1558

          k = 0.0833 0.4330 0.0000 (   766 PWs)   bands (ev):

   -76.9285 -76.9043 -40.2670 -40.2442 -40.2250 -40.1288 -40.0881 -40.0633
    13.3148  14.5928  14.7271  15.6556  16.3943  16.6726  16.7477  18.0483
    18.2837  18.5245  18.8504  24.7235  25.8294

          k = 0.0833 0.4330 0.0770 (   765 PWs)   bands (ev):

   -76.9276 -76.9051 -40.2856 -40.2403 -40.2094 -40.1266 -40.0883 -40.0647
    13.3548  14.5704  14.7990  15.5908  16.4405  16.7281  16.8207  18.0275
    18.3053  18.4103  18.8664  23.5316  26.3485

          k = 0.0833 0.4330 0.1540 (   761 PWs)   bands (ev):

   -76.9248 -76.9077 -40.3029 -40.2555 -40.1732 -40.1204 -40.0851 -40.0696
    13.4729  14.4489  14.9953  15.5778  16.4511  16.8535  17.0724  17.9608
    18.1916  18.4083  18.8529  21.9184  26.8280

          k = 0.0833 0.4330 0.2310 (   764 PWs)   bands (ev):

   -76.9210 -76.9117 -40.3070 -40.2806 -40.1414 -40.1134 -40.0974 -40.0777
    13.6576  14.2038  15.2223  15.6030  16.5300  16.9562  17.2430  17.6596
    18.2509  18.5170  18.8994  20.5142  27.4284

          k = 0.0833 0.4330-0.3081 (   766 PWs)   bands (ev):

   -76.9164 -76.9164 -40.2990 -40.2990 -40.1221 -40.1221 -40.0901 -40.0901
    13.9091  13.9091  15.4465  15.4465  16.8006  16.8006  17.3940  17.3940
    18.4522  18.4522  19.4567  19.4567  28.2002

          k = 0.0833 0.5292 0.0000 (   764 PWs)   bands (ev):

   -76.9208 -76.9036 -40.2995 -40.2452 -40.2162 -40.1355 -40.1063 -40.0724
    14.0249  14.4239  14.5757  15.8668  16.3675  16.5126  16.9133  18.4275
    18.5300  18.5347  19.8852  22.5909  27.6376

          k = 0.0833 0.5292 0.0770 (   759 PWs)   bands (ev):

   -76.9201 -76.9041 -40.3087 -40.2525 -40.1912 -40.1338 -40.1021 -40.0722
    13.9409  14.4227  14.8203  15.5752  16.4039  16.8836  16.9468  18.4003
    18.4797  18.5361  19.8437  22.4298  26.7940

          k = 0.0833 0.5292 0.1540 (   764 PWs)   bands (ev):

   -76.9183 -76.9061 -40.3240 -40.2808 -40.1674 -40.1263 -40.1022 -40.0771
    13.8430  14.3822  15.1285  15.3411  16.4349  17.0480  17.4159  18.1106
    18.4322  18.5891  19.6948  21.9068  26.0338

          k = 0.0833 0.5292 0.2310 (   771 PWs)   bands (ev):

   -76.9156 -76.9091 -40.3331 -40.3081 -40.1534 -40.1132 -40.1082 -40.0863
    13.8466  14.2045  15.1687  15.4552  16.6054  17.3314  17.5103  17.9064
    18.3995  18.5826  19.7426  21.1120  25.8378

          k = 0.0833 0.5292-0.3081 (   768 PWs)   bands (ev):

   -76.9123 -76.9123 -40.3251 -40.3251 -40.1290 -40.1290 -40.0928 -40.0928
    13.9855  13.9855  15.3569  15.3569  17.0498  17.0498  17.7241  17.7241
    18.4725  18.4725  20.3067  20.3067  26.1072

          k = 0.1667 0.2887 0.0000 (   765 PWs)   bands (ev):

   -76.9418 -76.9074 -40.2826 -40.1942 -40.1881 -40.1039 -40.0618 -40.0598
    11.9762  14.8470  15.1660  15.4306  16.4339  16.5475  17.0427  17.3381
    17.8132  18.1740  18.4428  23.6606  25.4482

          k = 0.1667 0.2887 0.0770 (   765 PWs)   bands (ev):

   -76.9405 -76.9087 -40.2816 -40.1872 -40.1825 -40.1123 -40.0667 -40.0633
    12.0858  14.8857  15.0790  15.4639  16.4092  16.5488  16.9436  17.3725
    17.8791  18.0970  18.4717  22.4471  26.9607

          k = 0.1667 0.2887 0.1540 (   766 PWs)   bands (ev):

   -76.9368 -76.9125 -40.2826 -40.1976 -40.1606 -40.1165 -40.0745 -40.0662
    12.4137  14.6712  15.1014  15.5701  16.2884  16.5181  16.8669  17.4878
    17.9628  18.0189  18.4965  20.9154  29.3073

          k = 0.1667 0.2887 0.2310 (   762 PWs)   bands (ev):

   -76.9311 -76.9180 -40.2685 -40.2233 -40.1337 -40.1100 -40.0784 -40.0729
    12.9251  14.1591  15.3600  15.7042  16.1191  16.3307  16.9891  17.4263
    18.1290  18.1861  18.4888  19.6956  31.7824

          k = 0.1667 0.2887-0.3081 (   754 PWs)   bands (ev):

   -76.9243 -76.9243 -40.2473 -40.2473 -40.1073 -40.1073 -40.0777 -40.0777
    13.5483  13.5483  15.6318  15.6318  16.1356  16.1356  17.2310  17.2310
    18.3289  18.3289  18.8172  18.8172  32.8357

          k = 0.1667 0.3849 0.0000 (   765 PWs)   bands (ev):

   -76.9304 -76.9046 -40.2431 -40.2414 -40.2186 -40.1381 -40.0814 -40.0776
    13.1566  14.8780  14.8816  15.2957  16.2891  16.6759  16.8082  17.6451
    18.2629  18.4502  18.8771  25.4755  25.7792

          k = 0.1667 0.3849 0.0770 (   768 PWs)   bands (ev):

   -76.9295 -76.9056 -40.2693 -40.2356 -40.2025 -40.1407 -40.0842 -40.0795
    13.2258  14.8038  14.9362  15.3481  16.2736  16.6730  16.7622  17.6548
    18.3021  18.3203  18.9356  23.6899  27.4765

          k = 0.1667 0.3849 0.1540 (   768 PWs)   bands (ev):

   -76.9267 -76.9084 -40.2859 -40.2446 -40.1692 -40.1418 -40.0950 -40.0756
    13.4214  14.6449  15.0847  15.4978  16.2348  16.5431  16.8191  17.6991
    18.0796  18.4418  19.0258  21.9830  28.3648

          k = 0.1667 0.3849 0.2310 (   765 PWs)   bands (ev):

   -76.9225 -76.9124 -40.2867 -40.2634 -40.1422 -40.1329 -40.0995 -40.0783
    13.7123  14.3915  15.3356  15.6476  16.1288  16.3521  16.9808  17.5440
    18.2309  18.5569  19.1460  20.5960  29.0793

          k = 0.1667 0.3849-0.3081 (   760 PWs)   bands (ev):

   -76.9174 -76.9174 -40.2768 -40.2768 -40.1309 -40.1309 -40.0864 -40.0864
    14.0645  14.0645  15.5777  15.5777  16.1861  16.1861  17.2531  17.2531
    18.5239  18.5239  19.5984  19.5984  29.9538

          k = 0.1667 0.4811 0.0000 (   766 PWs)   bands (ev):

   -76.9209 -76.9037 -40.2777 -40.2332 -40.2110 -40.1636 -40.1039 -40.0983
    14.0854  14.6790  14.6993  15.4607  16.2321  16.5530  16.8811  18.0381
    18.4463  18.4982  19.8792  24.1444  27.4035

          k = 0.1667 0.4811 0.0770 (   765 PWs)   bands (ev):

   -76.9202 -76.9043 -40.2859 -40.2454 -40.1958 -40.1592 -40.1030 -40.0927
    14.0654  14.6892  14.8019  15.4224  16.2715  16.5793  16.9139  18.0354
    18.3286  18.5362  19.9215  23.8303  26.5041

          k = 0.1667 0.4811 0.1540 (   766 PWs)   bands (ev):

   -76.9184 -76.9062 -40.3016 -40.2646 -40.1778 -40.1412 -40.1148 -40.0855
    14.0538  14.6418  14.9955  15.4969  16.2052  16.6458  17.0420  17.9294
    18.1491  18.6225  20.0300  22.8587  26.2272

          k = 0.1667 0.4811 0.2310 (   767 PWs)   bands (ev):

   -76.9156 -76.9090 -40.3089 -40.2870 -40.1656 -40.1374 -40.1064 -40.0856
    14.1067  14.4696  15.2332  15.6832  16.1218  16.6294  17.2173  17.6193
    18.2700  18.6311  20.2751  21.7223  26.5729

          k = 0.1667 0.4811-0.3081 (   772 PWs)   bands (ev):

   -76.9124 -76.9124 -40.3042 -40.3042 -40.1550 -40.1550 -40.0942 -40.0942
    14.2534  14.2534  15.5051  15.5051  16.3893  16.3893  17.3665  17.3665
    18.4782  18.4782  20.8135  20.8135  27.2490

          k = 0.1667 0.5774 0.0000 (   763 PWs)   bands (ev):

   -76.9166 -76.9040 -40.2900 -40.2312 -40.1936 -40.1690 -40.1206 -40.1025
    14.4010  14.5768  14.6562  15.6115  16.2515  16.4148  16.9914  18.3448
    18.4459  18.4717  20.9569  22.4529  28.5337

          k = 0.1667 0.5774 0.0770 (   757 PWs)   bands (ev):

   -76.9159 -76.9044 -40.2945 -40.2407 -40.1908 -40.1539 -40.1142 -40.0927
    14.2790  14.6156  14.9140  15.4455  16.2782  16.6026  17.0228  18.3257
    18.3399  18.5105  21.0016  22.4161  27.8673

          k = 0.1667 0.5774 0.1540 (   764 PWs)   bands (ev):

   -76.9148 -76.9059 -40.3106 -40.2720 -40.1835 -40.1287 -40.1222 -40.0917
    14.1694  14.6491  15.2198  15.3164  16.1270  16.8012  17.1624  18.0107
    18.3164  18.5545  21.0940  22.2729  26.8605

          k = 0.1667 0.5774 0.2310 (   770 PWs)   bands (ev):

   -76.9128 -76.9082 -40.3188 -40.2988 -40.1773 -40.1380 -40.1085 -40.0891
    14.1588  14.5006  15.2345  15.6440  16.0604  16.7971  17.3719  17.7139
    18.3384  18.5255  21.3074  22.0114  26.1401

          k = 0.1667 0.5774-0.3081 (   778 PWs)   bands (ev):

   -76.9107 -76.9107 -40.3160 -40.3160 -40.1647 -40.1647 -40.0968 -40.0968
    14.2799  14.2799  15.4614  15.4614  16.4349  16.4349  17.5292  17.5292
    18.4149  18.4149  21.6456  21.6456  25.9041

          k = 0.2500 0.4330 0.0000 (   763 PWs)   bands (ev):

   -76.9207 -76.9038 -40.2530 -40.2339 -40.2142 -40.1696 -40.1112 -40.0986
    14.1536  14.7668  15.0322  15.0503  16.1486  16.6204  16.8794  17.8233
    18.3981  18.4947  19.9238  25.7844  26.5910

          k = 0.2500 0.4330 0.0770 (   764 PWs)   bands (ev):

   -76.9202 -76.9043 -40.2552 -40.2529 -40.1854 -40.1742 -40.1150 -40.0972
    14.1733  14.7224  15.0689  15.1630  16.1958  16.4949  16.8790  17.8368
    18.2689  18.5575  19.9836  24.8195  26.7533

          k = 0.2500 0.4330 0.1540 (   767 PWs)   bands (ev):

   -76.9185 -76.9062 -40.2811 -40.2626 -40.1822 -40.1517 -40.1211 -40.0900
    14.2473  14.6603  15.1685  15.3832  16.2463  16.2540  16.8884  17.8208
    18.0758  18.6421  20.1616  23.2980  27.2080

          k = 0.2500 0.4330 0.2310 (   766 PWs)   bands (ev):

   -76.9158 -76.9088 -40.2943 -40.2782 -40.1774 -40.1485 -40.1010 -40.0881
    14.3408  14.5871  15.3434  15.6614  15.9904  16.2256  16.9965  17.5314
    18.2545  18.6532  20.4416  21.9745  27.8864

          k = 0.2500 0.4330-0.3081 (   766 PWs)   bands (ev):

   -76.9123 -76.9123 -40.2898 -40.2898 -40.1643 -40.1643 -40.0913 -40.0913
    14.4428  14.4428  15.6048  15.6048  16.0445  16.0445  17.2090  17.2090
    18.5329  18.5329  21.0069  21.0069  28.6484

          k = 0.2500 0.5292 0.0000 (   763 PWs)   bands (ev):

   -76.9136 -76.9048 -40.2694 -40.2197 -40.1954 -40.1817 -40.1349 -40.1236
    14.6744  14.7485  14.8869  15.2496  16.1553  16.3811  17.0297  18.0780
    18.3653  18.4665  21.3830  23.7266  25.9223

          k = 0.2500 0.5292 0.0770 (   765 PWs)   bands (ev):

   -76.9134 -76.9051 -40.2739 -40.2372 -40.2064 -40.1579 -40.1397 -40.1169
    14.5974  14.8643  14.9482  15.2365  16.1680  16.3260  17.0438  18.0815
    18.2408  18.4717  21.4674  23.7321  25.9640

          k = 0.2500 0.5292 0.1540 (   766 PWs)   bands (ev):

   -76.9124 -76.9061 -40.2825 -40.2626 -40.2122 -40.1594 -40.1249 -40.0952
    14.5530  14.9531  15.0610  15.3400  16.0626  16.2858  17.0813  17.9065
    18.1822  18.5137  21.7088  23.6417  25.9606

          k = 0.2500 0.5292 0.2310 (   773 PWs)   bands (ev):

   -76.9112 -76.9077 -40.2960 -40.2837 -40.2060 -40.1752 -40.1061 -40.0941
    14.5793  14.8175  15.2769  15.5935  15.8760  16.2038  17.1349  17.5501
    18.2699  18.4896  22.0921  23.2197  26.0269

          k = 0.2500 0.5292-0.3081 (   772 PWs)   bands (ev):

   -76.9094 -76.9094 -40.2959 -40.2959 -40.1903 -40.1903 -40.0951 -40.0951
    14.6767  14.6767  15.5310  15.5310  15.9963  15.9963  17.2836  17.2836
    18.4152  18.4152  22.6197  22.6197  26.4960

          k = 0.3333 0.5774 0.0000 (   765 PWs)   bands (ev):

   -76.9081 -76.9081 -40.2656 -40.2142 -40.2142 -40.1603 -40.1486 -40.1486
    14.7951  14.9350  14.9350  15.1729  16.2131  16.2131  17.0993  18.2230
    18.2230  18.3317  22.9638  23.7121  23.7121

          k = 0.3333 0.5774 0.0770 (   783 PWs)   bands (ev):

   -76.9086 -76.9086 -40.2630 -40.2383 -40.2383 -40.1731 -40.1443 -40.1443
    14.7506  14.9412  14.9412  15.1713  16.1331  16.1331  17.0810  18.1830
    18.2208  18.2208  23.1785  23.7439  23.7439

          k = 0.3333 0.5774 0.1540 (   756 PWs)   bands (ev):

   -76.9079 -76.9079 -40.2522 -40.2522 -40.2466 -40.1687 -40.1029 -40.1029
    14.9409  15.0587  15.0587  15.2070  16.1189  16.1189  17.0950  17.9201
    18.3310  18.3310  23.7936  23.8501  23.8501

          k = 0.3333 0.5774 0.2310 (   768 PWs)   bands (ev):

   -76.9082 -76.9082 -40.2749 -40.2749 -40.2316 -40.1892 -40.0988 -40.0988
    15.0622  15.1094  15.1094  15.2122  16.0007  16.0007  17.0982  17.5337
    18.3465  18.3465  23.9699  23.9699  24.6551

          k = 0.3333 0.5774-0.3081 (   780 PWs)   bands (ev):

   -76.9085 -76.9085 -40.2869 -40.2869 -40.2163 -40.2163 -40.0993 -40.0993
    15.1403  15.1403  15.1538  15.1538  15.9303  15.9303  17.2137  17.2137
    18.3479  18.3479  24.0219  24.0219  25.6891

     the Fermi energy is    18.2591 ev

!    total energy              =    -753.16496779 Ry
     total all-electron energy =     -5573.521659 Ry
     estimated scf accuracy    <          5.9E-09 Ry
     smearing contrib. (-TS)   =      -0.00371421 Ry
     internal energy E=F+TS    =    -753.16125358 Ry

     The total energy is F=E-TS. E is the sum of the following terms:
     one-electron contribution =    -286.87404980 Ry
     hartree contribution      =     166.63871430 Ry
     xc contribution           =     -61.19199812 Ry
     ewald contribution        =    -396.32267129 Ry
     one-center paw contrib.   =    -175.41124867 Ry

     convergence has been achieved in   9 iterations

     Writing all to output data dir ./tmp_nm/co_nm.save/ :
     XML data file, charge density, pseudopotentials, collected wavefunctions

     init_run     :      0.63s CPU      0.68s WALL (       1 calls)
     electrons    :     12.26s CPU     12.79s WALL (       1 calls)

     Called by init_run:
     wfcinit      :      0.28s CPU      0.30s WALL (       1 calls)
     potinit      :      0.19s CPU      0.20s WALL (       1 calls)
     hinit0       :      0.14s CPU      0.14s WALL (       1 calls)

     Called by electrons:
     c_bands      :     10.10s CPU     10.53s WALL (      10 calls)
     sum_band     :      1.20s CPU      1.29s WALL (      10 calls)
     v_of_rho     :      0.04s CPU      0.04s WALL (      10 calls)
     newd         :      0.13s CPU      0.14s WALL (      10 calls)
     PAW_pot      :      0.92s CPU      0.92s WALL (      10 calls)
     mix_rho      :      0.00s CPU      0.00s WALL (      10 calls)

     Called by c_bands:
     init_us_2    :      0.09s CPU      0.09s WALL (    1995 calls)
     cegterg      :      9.89s CPU     10.32s WALL (     950 calls)

     Called by *egterg:
     cdiaghg      :      1.02s CPU      1.06s WALL (    4108 calls)
     h_psi        :      5.77s CPU      6.05s WALL (    4298 calls)
     s_psi        :      0.59s CPU      0.62s WALL (    4298 calls)
     g_psi        :      0.03s CPU      0.03s WALL (    3253 calls)

     Called by h_psi:
     h_psi:calbec :      0.61s CPU      0.64s WALL (    4298 calls)
     vloc_psi     :      4.53s CPU      4.75s WALL (    4298 calls)
                                        0.00s GPU  (    4298 calls)
     add_vuspsi   :      0.59s CPU      0.62s WALL (    4298 calls)

     General routines
     calbec       :      0.81s CPU      0.85s WALL (    5248 calls)
     fft          :      0.08s CPU      0.08s WALL (     129 calls)
     ffts         :      0.07s CPU      0.07s WALL (      20 calls)
     fftw         :      4.70s CPU      4.94s WALL (  133460 calls)
     interpolate  :      0.07s CPU      0.07s WALL (      10 calls)

     Parallel routines

     PWSCF        :     12.94s CPU     13.56s WALL


   This run was terminated on:  21:24:10   8Sep2026            

=------------------------------------------------------------------------------=
   JOB DONE.
=------------------------------------------------------------------------------=
