
     Program PWSCF v.7.5 starts on  8Sep2026 at 20: 2:20 

     This program is part of the open-source Quantum ESPRESSO suite
     for quantum simulation of materials; please cite
         "P. Giannozzi et al., J. Phys.:Condens. Matter 21 395502 (2009);
         "P. Giannozzi et al., J. Phys.:Condens. Matter 29 465901 (2017);
         "P. Giannozzi et al., J. Chem. Phys. 152 154105 (2020);
          URL http://www.quantum-espresso.org", 
     in publications or presentations arising from this work. More details at
     http://www.quantum-espresso.org/quote

     Parallel version (MPI & OpenMP), running on       2 processor cores
     Number of MPI processes:                 2
     Threads/MPI process:                     1

     MPI processes distributed on     1 nodes
     14674 MiB available memory on the printing compute node when the environment starts

     Waiting for input...
     Reading input from standard input
Warning: card &CELL ignored

     Current dimensions of program PWSCF are:
     Max number of different atomic species (ntypx) = 10
     Max number of k-points (npk) =  40000
     Max angular momentum in pseudopotentials (lmaxx) =  4
     file Sc.pbe-spn-kjpaw_psl.1.0.0.UPF: wavefunction(s)  3S 3P 3D renormalized
     file Al.pbe-n-kjpaw_psl.1.0.0.UPF: wavefunction(s)  3S 3P renormalized

     R & G space division:  proc/nbgrp/npool/nimage =       2
     Subspace diagonalization in iterative solution of the eigenvalue problem:
     a serial algorithm will be used


     Parallelization info
     --------------------
     sticks:   dense  smooth     PW     G-vecs:    dense   smooth      PW
     Min         388     192     68                 8186     2870     570
     Max         389     193     69                 8189     2873     571
     Sum         777     385    137                16375     5743    1141

     Using Slab Decomposition



     bravais-lattice index     =            1
     lattice parameter (alat)  =       6.3873  a.u.
     unit-cell volume          =     260.5834 (a.u.)^3
     number of atoms/cell      =            2
     number of atomic types    =            2
     number of electrons       =        14.00
     number of Kohn-Sham states=           11
     kinetic-energy cutoff     =      30.0000  Ry
     charge density cutoff     =     240.0000  Ry
     scf convergence threshold =      1.0E-07
     mixing beta               =       0.7000
     number of iterations used =            8  plain     mixing
     Exchange-correlation= SLA  PW   PBX  PBC
                           (   1   4   3   4   0   0   0)

     celldm(1)=   6.387274  celldm(2)=   0.000000  celldm(3)=   0.000000
     celldm(4)=   0.000000  celldm(5)=   0.000000  celldm(6)=   0.000000

     crystal axes: (cart. coord. in units of alat)
               a(1) = (   1.000000   0.000000   0.000000 )  
               a(2) = (   0.000000   1.000000   0.000000 )  
               a(3) = (   0.000000   0.000000   1.000000 )  

     reciprocal axes: (cart. coord. in units 2 pi/alat)
               b(1) = (  1.000000  0.000000  0.000000 )  
               b(2) = (  0.000000  1.000000  0.000000 )  
               b(3) = (  0.000000  0.000000  1.000000 )  


     PseudoPot. # 1 for Sc read from file:
     /home/jdmin2003/qe-work/pseudo/Sc.pbe-spn-kjpaw_psl.1.0.0.UPF
     MD5 check sum: d5ac433e587a0148d610ca85a1be5559
     Pseudo is Projector augmented-wave + core cor, Zval = 11.0
     Generated using &quot;atomic&quot; code by A. Dal Corso  v.6.2.2
     Shape of augmentation charge: PSQ
     Using radial grid of 1173 points,  6 beta functions with: 
                l(1) =   0
                l(2) =   0
                l(3) =   1
                l(4) =   1
                l(5) =   2
                l(6) =   2
     Q(r) pseudized with 0 coefficients 


     PseudoPot. # 2 for Al read from file:
     /home/jdmin2003/qe-work/pseudo/Al.pbe-n-kjpaw_psl.1.0.0.UPF
     MD5 check sum: 502b6b27b9c6270cab5dd1084b96fa6d
     Pseudo is Projector augmented-wave + core cor, Zval =  3.0
     Generated using &quot;atomic&quot; code by A. Dal Corso  v.6.3
     Shape of augmentation charge: PSQ
     Using radial grid of 1135 points,  6 beta functions with: 
                l(1) =   0
                l(2) =   0
                l(3) =   1
                l(4) =   1
                l(5) =   2
                l(6) =   2
     Q(r) pseudized with 0 coefficients 


     atomic species   valence    mass     pseudopotential
     Sc               11.00    44.95600     Sc( 1.00)
     Al                3.00    26.98200     Al( 1.00)

     48 Sym. Ops., with inversion, found



   Cartesian axes

     site n.     atom                  positions (alat units)
         1        Sc     tau(   1) = (   0.0000000   0.0000000   0.0000000  )
         2        Al     tau(   2) = (   0.5000000   0.5000000   0.5000000  )

     number of k points=    20  Marzari-Vanderbilt smearing, width (Ry)=  0.0200
                       cart. coord. in units 2pi/alat
        k(    1) = (   0.0000000   0.0000000   0.0000000), wk =   0.0092593
        k(    2) = (   0.0000000   0.0000000   0.1666667), wk =   0.0555556
        k(    3) = (   0.0000000   0.0000000   0.3333333), wk =   0.0555556
        k(    4) = (   0.0000000   0.0000000  -0.5000000), wk =   0.0277778
        k(    5) = (   0.0000000   0.1666667   0.1666667), wk =   0.1111111
        k(    6) = (   0.0000000   0.1666667   0.3333333), wk =   0.2222222
        k(    7) = (   0.0000000   0.1666667  -0.5000000), wk =   0.1111111
        k(    8) = (   0.0000000   0.3333333   0.3333333), wk =   0.1111111
        k(    9) = (   0.0000000   0.3333333  -0.5000000), wk =   0.1111111
        k(   10) = (   0.0000000  -0.5000000  -0.5000000), wk =   0.0277778
        k(   11) = (   0.1666667   0.1666667   0.1666667), wk =   0.0740741
        k(   12) = (   0.1666667   0.1666667   0.3333333), wk =   0.2222222
        k(   13) = (   0.1666667   0.1666667  -0.5000000), wk =   0.1111111
        k(   14) = (   0.1666667   0.3333333   0.3333333), wk =   0.2222222
        k(   15) = (   0.1666667   0.3333333  -0.5000000), wk =   0.2222222
        k(   16) = (   0.1666667  -0.5000000  -0.5000000), wk =   0.0555556
        k(   17) = (   0.3333333   0.3333333   0.3333333), wk =   0.0740741
        k(   18) = (   0.3333333   0.3333333  -0.5000000), wk =   0.1111111
        k(   19) = (   0.3333333  -0.5000000  -0.5000000), wk =   0.0555556
        k(   20) = (  -0.5000000  -0.5000000  -0.5000000), wk =   0.0092593

     Dense  grid:    16375 G-vectors     FFT dimensions: (  32,  32,  32)

     Smooth grid:     5743 G-vectors     FFT dimensions: (  24,  24,  24)

     Estimated max dynamical RAM per process >      32.06 MB

     Estimated total dynamical RAM >      64.13 MB

     Check: negative core charge=   -0.000019

     Initial potential from superposition of free atoms

     starting charge      13.9951, renormalised to      14.0000
     Starting wfcs are   14 randomized atomic wfcs
     Checking if some PAW data can be deallocated... 

     total cpu time spent up to now is        0.5 secs

     per-process dynamical memory:    40.8 Mb

     Self-consistent Calculation

     iteration #  1     ecut=    30.00 Ry     beta= 0.70
     Davidson diagonalization with overlap
     ethr =  1.00E-02,  avg # of iterations =  3.0

     Threshold (ethr) on eigenvalues was too large:
     Diagonalizing with lowered threshold

     Davidson diagonalization with overlap
     ethr =  1.66E-04,  avg # of iterations =  3.2

     total cpu time spent up to now is        0.9 secs

     total energy              =    -196.44638308 Ry
     estimated scf accuracy    <       0.03233815 Ry

     iteration #  2     ecut=    30.00 Ry     beta= 0.70
     Davidson diagonalization with overlap
     ethr =  2.31E-04,  avg # of iterations =  4.0

     total cpu time spent up to now is        1.1 secs

     total energy              =    -196.45227412 Ry
     estimated scf accuracy    <       0.01782051 Ry

     iteration #  3     ecut=    30.00 Ry     beta= 0.70
     Davidson diagonalization with overlap
     ethr =  1.27E-04,  avg # of iterations =  2.9

     total cpu time spent up to now is        1.3 secs

     total energy              =    -196.45660140 Ry
     estimated scf accuracy    <       0.00024890 Ry

     iteration #  4     ecut=    30.00 Ry     beta= 0.70
     Davidson diagonalization with overlap
     c_bands:  1 eigenvalues not converged
     ethr =  1.78E-06,  avg # of iterations =  6.2

     total cpu time spent up to now is        1.6 secs

     total energy              =    -196.45667840 Ry
     estimated scf accuracy    <       0.00018806 Ry

     iteration #  5     ecut=    30.00 Ry     beta= 0.70
     Davidson diagonalization with overlap
     ethr =  1.34E-06,  avg # of iterations =  3.0

     total cpu time spent up to now is        1.8 secs

     total energy              =    -196.45673701 Ry
     estimated scf accuracy    <       0.00001865 Ry

     iteration #  6     ecut=    30.00 Ry     beta= 0.70
     Davidson diagonalization with overlap
     ethr =  1.33E-07,  avg # of iterations =  2.6

     total cpu time spent up to now is        2.0 secs

     total energy              =    -196.45674047 Ry
     estimated scf accuracy    <       0.00000044 Ry

     iteration #  7     ecut=    30.00 Ry     beta= 0.70
     Davidson diagonalization with overlap
     ethr =  3.15E-09,  avg # of iterations =  4.9

     total cpu time spent up to now is        2.2 secs

     total energy              =    -196.45674086 Ry
     estimated scf accuracy    <       0.00000017 Ry

     iteration #  8     ecut=    30.00 Ry     beta= 0.70
     Davidson diagonalization with overlap
     ethr =  1.23E-09,  avg # of iterations =  1.9

     total cpu time spent up to now is        2.4 secs

     End of self-consistent calculation

          k = 0.0000 0.0000 0.0000 (   739 PWs)   bands (ev):

   -40.3718 -18.8512 -18.8512 -18.8512   1.0884   8.9175   8.9175  12.5122
    12.5122  12.5122  13.2053

          k = 0.0000 0.0000 0.1667 (   735 PWs)   bands (ev):

   -40.3680 -18.8781 -18.8461 -18.8461   1.4769   8.4120   9.1135  11.5641
    11.5641  12.5778  12.6254

          k = 0.0000 0.0000 0.3333 (   723 PWs)   bands (ev):

   -40.3602 -18.9520 -18.8231 -18.8231   2.5782   6.6187   9.6095  10.7558
    10.7558  12.7459  13.0344

          k = 0.0000 0.0000-0.5000 (   708 PWs)   bands (ev):

   -40.3557 -18.9859 -18.8019 -18.8019   3.8440   4.9763   9.9416  10.4595
    10.4595  12.8803  13.7527

          k = 0.0000 0.1667 0.1667 (   720 PWs)   bands (ev):

   -40.3635 -18.8689 -18.8615 -18.8299   1.8501   8.5376   8.7711  10.8139
    11.4654  12.1747  13.2490

          k = 0.0000 0.1667 0.3333 (   728 PWs)   bands (ev):

   -40.3572 -18.9560 -18.8673 -18.8199   2.8983   6.8891   9.1687  10.3863
    10.8860  12.1992  13.2551

          k = 0.0000 0.1667-0.5000 (   732 PWs)   bands (ev):

   -40.3540 -18.9871 -18.8754 -18.8206   4.0307   5.3825   9.6511   9.9808
    10.6154  12.2699  13.6683

          k = 0.0000 0.3333 0.3333 (   728 PWs)   bands (ev):

   -40.3506 -18.9475 -18.9340 -18.8240   3.7563   7.3579   7.9003  10.1448
    11.1121  11.5314  13.4464

          k = 0.0000 0.3333-0.5000 (   712 PWs)   bands (ev):

   -40.3462 -18.9596 -18.9261 -18.8080   4.5143   6.4930   8.3291   9.6911
    11.0349  11.5609  13.6243

          k = 0.0000-0.5000-0.5000 (   720 PWs)   bands (ev):

   -40.3434 -18.9672 -18.9672 -18.8082   4.8587   7.6401   7.6401   8.7304
    11.2428  11.2428  13.6807

          k = 0.1667 0.1667 0.1667 (   724 PWs)   bands (ev):

   -40.3605 -18.8683 -18.8683 -18.8674   2.2084   8.6693   8.6693  10.2496
    11.3677  11.3677  14.2241

          k = 0.1667 0.1667 0.3333 (   725 PWs)   bands (ev):

   -40.3538 -18.9439 -18.8624 -18.8620   3.2081   7.1500   8.9768  10.4045
    10.5187  11.6086  13.6343

          k = 0.1667 0.1667-0.5000 (   736 PWs)   bands (ev):

   -40.3510 -18.9910 -18.8663 -18.8658   4.2387   5.7528   9.1495  10.1677
    10.7206  11.6629  13.7311

          k = 0.1667 0.3333 0.3333 (   726 PWs)   bands (ev):

   -40.3472 -18.9436 -18.9302 -18.8566   4.0406   7.6384   7.8399  10.2163
    10.6586  11.3445  13.8682

          k = 0.1667 0.3333-0.5000 (   718 PWs)   bands (ev):

   -40.3434 -18.9631 -18.9237 -18.8509   4.7801   6.7051   8.1133   9.9814
    11.1468  11.2804  13.7387

          k = 0.1667-0.5000-0.5000 (   716 PWs)   bands (ev):

   -40.3400 -18.9582 -18.9582 -18.8470   5.1894   7.4743   7.4743   9.2976
    11.4870  11.4870  13.0613

          k = 0.3333 0.3333 0.3333 (   717 PWs)   bands (ev):

   -40.3402 -18.9330 -18.9171 -18.9171   4.8097   7.6977   7.6977   9.9562
    11.1665  11.1665  12.6465

          k = 0.3333 0.3333-0.5000 (   712 PWs)   bands (ev):

   -40.3365 -18.9497 -18.9207 -18.9090   5.4966   7.0534   7.6202  10.7690
    11.1351  11.1578  12.1103

          k = 0.3333-0.5000-0.5000 (   712 PWs)   bands (ev):

   -40.3334 -18.9490 -18.9490 -18.9126   6.1206   7.1822   7.1822  10.5518
    10.8269  12.0317  12.0317

          k =-0.5000-0.5000-0.5000 (   720 PWs)   bands (ev):

   -40.3308 -18.9538 -18.9538 -18.9538   7.0377   7.0377   7.0377   9.0523
    12.3384  12.3384  13.7041

     the Fermi energy is     9.5722 ev

!    total energy              =    -196.45674086 Ry
     total all-electron energy =     -2014.088304 Ry
     estimated scf accuracy    <       0.00000002 Ry
     smearing contrib. (-TS)   =       0.00090369 Ry
     internal energy E=F+TS    =    -196.45764455 Ry

     The total energy is F=E-TS. E is the sum of the following terms:
     one-electron contribution =     -39.60013525 Ry
     hartree contribution      =      24.17116555 Ry
     xc contribution           =     -20.07097617 Ry
     ewald contribution        =     -66.03387087 Ry
     one-center paw contrib.   =     -94.92382780 Ry

     convergence has been achieved in   8 iterations

     Writing all to output data dir ./tmp_ecut_30/scal_ecut_30.save/ :
     XML data file, charge density, pseudopotentials, collected wavefunctions

     init_run     :      0.39s CPU      0.43s WALL (       1 calls)
     electrons    :      1.84s CPU      1.92s WALL (       1 calls)

     Called by init_run:
     wfcinit      :      0.04s CPU      0.04s WALL (       1 calls)
     potinit      :      0.16s CPU      0.19s WALL (       1 calls)
     hinit0       :      0.16s CPU      0.16s WALL (       1 calls)

     Called by electrons:
     c_bands      :      0.70s CPU      0.76s WALL (       9 calls)
     sum_band     :      0.28s CPU      0.30s WALL (       9 calls)
     v_of_rho     :      0.02s CPU      0.02s WALL (       9 calls)
     newd         :      0.18s CPU      0.19s WALL (       9 calls)
     PAW_pot      :      0.76s CPU      0.79s WALL (       9 calls)
     mix_rho      :      0.00s CPU      0.00s WALL (       9 calls)

     Called by c_bands:
     init_us_2    :      0.02s CPU      0.02s WALL (     380 calls)
     cegterg      :      0.67s CPU      0.73s WALL (     180 calls)

     Called by *egterg:
     cdiaghg      :      0.05s CPU      0.05s WALL (     796 calls)
     h_psi        :      0.45s CPU      0.49s WALL (     836 calls)
     s_psi        :      0.05s CPU      0.06s WALL (     836 calls)
     g_psi        :      0.00s CPU      0.00s WALL (     636 calls)

     Called by h_psi:
     h_psi:calbec :      0.06s CPU      0.06s WALL (     836 calls)
     vloc_psi     :      0.34s CPU      0.37s WALL (     836 calls)
                                        0.00s GPU  (     836 calls)
     add_vuspsi   :      0.05s CPU      0.06s WALL (     836 calls)

     General routines
     calbec       :      0.07s CPU      0.08s WALL (    1016 calls)
     fft          :      0.05s CPU      0.05s WALL (     116 calls)
     ffts         :      0.06s CPU      0.06s WALL (      18 calls)
     fftw         :      0.35s CPU      0.38s WALL (   13230 calls)
     interpolate  :      0.06s CPU      0.06s WALL (       9 calls)

     Parallel routines

     PWSCF        :      2.32s CPU      2.45s WALL


   This run was terminated on:  20: 2:23   8Sep2026            

=------------------------------------------------------------------------------=
   JOB DONE.
=------------------------------------------------------------------------------=
