
     Program PWSCF v.7.5 starts on  8Sep2026 at 20: 2:23 

     This program is part of the open-source Quantum ESPRESSO suite
     for quantum simulation of materials; please cite
         "P. Giannozzi et al., J. Phys.:Condens. Matter 21 395502 (2009);
         "P. Giannozzi et al., J. Phys.:Condens. Matter 29 465901 (2017);
         "P. Giannozzi et al., J. Chem. Phys. 152 154105 (2020);
          URL http://www.quantum-espresso.org", 
     in publications or presentations arising from this work. More details at
     http://www.quantum-espresso.org/quote

     Parallel version (MPI & OpenMP), running on       2 processor cores
     Number of MPI processes:                 2
     Threads/MPI process:                     1

     MPI processes distributed on     1 nodes
     14610 MiB available memory on the printing compute node when the environment starts

     Waiting for input...
     Reading input from standard input
Warning: card &CELL ignored

     Current dimensions of program PWSCF are:
     Max number of different atomic species (ntypx) = 10
     Max number of k-points (npk) =  40000
     Max angular momentum in pseudopotentials (lmaxx) =  4
     file Sc.pbe-spn-kjpaw_psl.1.0.0.UPF: wavefunction(s)  3S 3P 3D renormalized
     file Al.pbe-n-kjpaw_psl.1.0.0.UPF: wavefunction(s)  3S 3P renormalized

     R & G space division:  proc/nbgrp/npool/nimage =       2
     Subspace diagonalization in iterative solution of the eigenvalue problem:
     a serial algorithm will be used


     Parallelization info
     --------------------
     sticks:   dense  smooth     PW     G-vecs:    dense   smooth      PW
     Min         520     258     88                12634     4462     823
     Max         521     259     89                12635     4463     824
     Sum        1041     517    177                25269     8925    1647

     Using Slab Decomposition



     bravais-lattice index     =            1
     lattice parameter (alat)  =       6.3873  a.u.
     unit-cell volume          =     260.5834 (a.u.)^3
     number of atoms/cell      =            2
     number of atomic types    =            2
     number of electrons       =        14.00
     number of Kohn-Sham states=           11
     kinetic-energy cutoff     =      40.0000  Ry
     charge density cutoff     =     320.0000  Ry
     scf convergence threshold =      1.0E-07
     mixing beta               =       0.7000
     number of iterations used =            8  plain     mixing
     Exchange-correlation= SLA  PW   PBX  PBC
                           (   1   4   3   4   0   0   0)

     celldm(1)=   6.387274  celldm(2)=   0.000000  celldm(3)=   0.000000
     celldm(4)=   0.000000  celldm(5)=   0.000000  celldm(6)=   0.000000

     crystal axes: (cart. coord. in units of alat)
               a(1) = (   1.000000   0.000000   0.000000 )  
               a(2) = (   0.000000   1.000000   0.000000 )  
               a(3) = (   0.000000   0.000000   1.000000 )  

     reciprocal axes: (cart. coord. in units 2 pi/alat)
               b(1) = (  1.000000  0.000000  0.000000 )  
               b(2) = (  0.000000  1.000000  0.000000 )  
               b(3) = (  0.000000  0.000000  1.000000 )  


     PseudoPot. # 1 for Sc read from file:
     /home/jdmin2003/qe-work/pseudo/Sc.pbe-spn-kjpaw_psl.1.0.0.UPF
     MD5 check sum: d5ac433e587a0148d610ca85a1be5559
     Pseudo is Projector augmented-wave + core cor, Zval = 11.0
     Generated using &quot;atomic&quot; code by A. Dal Corso  v.6.2.2
     Shape of augmentation charge: PSQ
     Using radial grid of 1173 points,  6 beta functions with: 
                l(1) =   0
                l(2) =   0
                l(3) =   1
                l(4) =   1
                l(5) =   2
                l(6) =   2
     Q(r) pseudized with 0 coefficients 


     PseudoPot. # 2 for Al read from file:
     /home/jdmin2003/qe-work/pseudo/Al.pbe-n-kjpaw_psl.1.0.0.UPF
     MD5 check sum: 502b6b27b9c6270cab5dd1084b96fa6d
     Pseudo is Projector augmented-wave + core cor, Zval =  3.0
     Generated using &quot;atomic&quot; code by A. Dal Corso  v.6.3
     Shape of augmentation charge: PSQ
     Using radial grid of 1135 points,  6 beta functions with: 
                l(1) =   0
                l(2) =   0
                l(3) =   1
                l(4) =   1
                l(5) =   2
                l(6) =   2
     Q(r) pseudized with 0 coefficients 


     atomic species   valence    mass     pseudopotential
     Sc               11.00    44.95600     Sc( 1.00)
     Al                3.00    26.98200     Al( 1.00)

     48 Sym. Ops., with inversion, found



   Cartesian axes

     site n.     atom                  positions (alat units)
         1        Sc     tau(   1) = (   0.0000000   0.0000000   0.0000000  )
         2        Al     tau(   2) = (   0.5000000   0.5000000   0.5000000  )

     number of k points=    20  Marzari-Vanderbilt smearing, width (Ry)=  0.0200
                       cart. coord. in units 2pi/alat
        k(    1) = (   0.0000000   0.0000000   0.0000000), wk =   0.0092593
        k(    2) = (   0.0000000   0.0000000   0.1666667), wk =   0.0555556
        k(    3) = (   0.0000000   0.0000000   0.3333333), wk =   0.0555556
        k(    4) = (   0.0000000   0.0000000  -0.5000000), wk =   0.0277778
        k(    5) = (   0.0000000   0.1666667   0.1666667), wk =   0.1111111
        k(    6) = (   0.0000000   0.1666667   0.3333333), wk =   0.2222222
        k(    7) = (   0.0000000   0.1666667  -0.5000000), wk =   0.1111111
        k(    8) = (   0.0000000   0.3333333   0.3333333), wk =   0.1111111
        k(    9) = (   0.0000000   0.3333333  -0.5000000), wk =   0.1111111
        k(   10) = (   0.0000000  -0.5000000  -0.5000000), wk =   0.0277778
        k(   11) = (   0.1666667   0.1666667   0.1666667), wk =   0.0740741
        k(   12) = (   0.1666667   0.1666667   0.3333333), wk =   0.2222222
        k(   13) = (   0.1666667   0.1666667  -0.5000000), wk =   0.1111111
        k(   14) = (   0.1666667   0.3333333   0.3333333), wk =   0.2222222
        k(   15) = (   0.1666667   0.3333333  -0.5000000), wk =   0.2222222
        k(   16) = (   0.1666667  -0.5000000  -0.5000000), wk =   0.0555556
        k(   17) = (   0.3333333   0.3333333   0.3333333), wk =   0.0740741
        k(   18) = (   0.3333333   0.3333333  -0.5000000), wk =   0.1111111
        k(   19) = (   0.3333333  -0.5000000  -0.5000000), wk =   0.0555556
        k(   20) = (  -0.5000000  -0.5000000  -0.5000000), wk =   0.0092593

     Dense  grid:    25269 G-vectors     FFT dimensions: (  40,  40,  40)

     Smooth grid:     8925 G-vectors     FFT dimensions: (  25,  25,  25)

     Estimated max dynamical RAM per process >      48.96 MB

     Estimated total dynamical RAM >      97.92 MB

     Check: negative core charge=   -0.000008

     Initial potential from superposition of free atoms

     starting charge      13.9951, renormalised to      14.0000
     Starting wfcs are   14 randomized atomic wfcs
     Checking if some PAW data can be deallocated... 

     total cpu time spent up to now is        0.6 secs

     per-process dynamical memory:    23.4 Mb

     Self-consistent Calculation

     iteration #  1     ecut=    40.00 Ry     beta= 0.70
     Davidson diagonalization with overlap
     ethr =  1.00E-02,  avg # of iterations =  2.6

     Threshold (ethr) on eigenvalues was too large:
     Diagonalizing with lowered threshold

     Davidson diagonalization with overlap
     ethr =  6.84E-05,  avg # of iterations =  5.8

     total cpu time spent up to now is        1.1 secs

     total energy              =    -196.51972328 Ry
     estimated scf accuracy    <       0.01765339 Ry

     iteration #  2     ecut=    40.00 Ry     beta= 0.70
     Davidson diagonalization with overlap
     ethr =  1.26E-04,  avg # of iterations =  4.0

     total cpu time spent up to now is        1.5 secs

     total energy              =    -196.52136581 Ry
     estimated scf accuracy    <       0.00683649 Ry

     iteration #  3     ecut=    40.00 Ry     beta= 0.70
     Davidson diagonalization with overlap
     ethr =  4.88E-05,  avg # of iterations =  4.0

     total cpu time spent up to now is        1.8 secs

     total energy              =    -196.52335518 Ry
     estimated scf accuracy    <       0.00069909 Ry

     iteration #  4     ecut=    40.00 Ry     beta= 0.70
     Davidson diagonalization with overlap
     ethr =  4.99E-06,  avg # of iterations =  3.8

     total cpu time spent up to now is        2.2 secs

     total energy              =    -196.52345644 Ry
     estimated scf accuracy    <       0.00001711 Ry

     iteration #  5     ecut=    40.00 Ry     beta= 0.70
     Davidson diagonalization with overlap
     ethr =  1.22E-07,  avg # of iterations =  5.8

     total cpu time spent up to now is        2.5 secs

     total energy              =    -196.52347299 Ry
     estimated scf accuracy    <       0.00000752 Ry

     iteration #  6     ecut=    40.00 Ry     beta= 0.70
     Davidson diagonalization with overlap
     ethr =  5.37E-08,  avg # of iterations =  2.9

     total cpu time spent up to now is        2.8 secs

     total energy              =    -196.52347404 Ry
     estimated scf accuracy    <       0.00000028 Ry

     iteration #  7     ecut=    40.00 Ry     beta= 0.70
     Davidson diagonalization with overlap
     ethr =  2.00E-09,  avg # of iterations =  5.2

     total cpu time spent up to now is        3.2 secs

     total energy              =    -196.52347434 Ry
     estimated scf accuracy    <       0.00000014 Ry

     iteration #  8     ecut=    40.00 Ry     beta= 0.70
     Davidson diagonalization with overlap
     ethr =  9.70E-10,  avg # of iterations =  2.1

     total cpu time spent up to now is        3.5 secs

     End of self-consistent calculation

          k = 0.0000 0.0000 0.0000 (  1141 PWs)   bands (ev):

   -40.0036 -18.5780 -18.5780 -18.5780   1.0800   8.8707   8.8707  12.2265
    12.2266  12.2267  13.1943

          k = 0.0000 0.0000 0.1667 (  1109 PWs)   bands (ev):

   -40.0000 -18.6213 -18.5738 -18.5738   1.4685   8.3741   9.0666  11.3898
    11.3898  12.2940  12.5208

          k = 0.0000 0.0000 0.3333 (  1113 PWs)   bands (ev):

   -39.9930 -18.7075 -18.5661 -18.5661   2.5688   6.6114   9.5233  10.5925
    10.5925  12.4010  12.7792

          k = 0.0000 0.0000-0.5000 (  1140 PWs)   bands (ev):

   -39.9897 -18.7505 -18.5627 -18.5627   3.8241   4.9821   9.8018  10.2994
    10.2994  12.4428  13.3069

          k = 0.0000 0.1667 0.1667 (  1113 PWs)   bands (ev):

   -39.9965 -18.6191 -18.6144 -18.5702   1.8414   8.4919   8.7165  10.6684
    11.2646  11.9159  13.0798

          k = 0.0000 0.1667 0.3333 (  1123 PWs)   bands (ev):

   -39.9897 -18.7019 -18.6079 -18.5625   2.8880   6.8789   9.1074  10.2698
    10.7213  11.9276  12.9667

          k = 0.0000 0.1667-0.5000 (  1122 PWs)   bands (ev):

   -39.9862 -18.7439 -18.6034 -18.5586   4.0104   5.3895   9.5738   9.8911
    10.4624  12.0169  13.2774

          k = 0.0000 0.3333 0.3333 (  1111 PWs)   bands (ev):

   -39.9828 -18.6925 -18.6878 -18.5548   3.7412   7.3355   7.8884  10.0651
    10.9389  11.3302  13.0823

          k = 0.0000 0.3333-0.5000 (  1102 PWs)   bands (ev):

   -39.9793 -18.7307 -18.6841 -18.5511   4.4846   6.4971   8.2972   9.6202
    10.8365  11.3372  13.1881

          k = 0.0000-0.5000-0.5000 (  1092 PWs)   bands (ev):

   -39.9759 -18.7241 -18.7241 -18.5473   4.8226   7.6372   7.6372   8.7001
    11.0626  11.0626  13.2139

          k = 0.1667 0.1667 0.1667 (  1093 PWs)   bands (ev):

   -39.9930 -18.6163 -18.6100 -18.6100   2.1994   8.6237   8.6237  10.1706
    11.1709  11.1709  13.9942

          k = 0.1667 0.1667 0.3333 (  1115 PWs)   bands (ev):

   -39.9862 -18.6962 -18.6052 -18.6018   3.1964   7.1368   8.9147  10.3129
    10.3797  11.3906  13.3085

          k = 0.1667 0.1667-0.5000 (  1120 PWs)   bands (ev):

   -39.9828 -18.7377 -18.6007 -18.5977   4.2172   5.7587   9.0816  10.0834
    10.6236  11.4491  13.3455

          k = 0.1667 0.3333 0.3333 (  1116 PWs)   bands (ev):

   -39.9795 -18.6871 -18.6829 -18.5950   4.0242   7.6079   7.8158  10.1232
    10.5544  11.1704  13.4955

          k = 0.1667 0.3333-0.5000 (  1108 PWs)   bands (ev):

   -39.9760 -18.7251 -18.6792 -18.5907   4.7513   6.7017   8.0656   9.9072
    11.0335  11.1091  13.3263

          k = 0.1667-0.5000-0.5000 (  1120 PWs)   bands (ev):

   -39.9727 -18.7191 -18.7191 -18.5867   5.1489   7.4585   7.4585   9.2599
    11.3360  11.3360  12.9005

          k = 0.3333 0.3333 0.3333 (  1118 PWs)   bands (ev):

   -39.9728 -18.6779 -18.6729 -18.6729   4.7870   7.6506   7.6506   9.9335
    11.0386  11.0387  12.4697

          k = 0.3333 0.3333-0.5000 (  1102 PWs)   bands (ev):

   -39.9694 -18.7137 -18.6706 -18.6677   5.4646   7.0285   7.5615  10.7004
    11.0327  11.1160  11.9456

          k = 0.3333-0.5000-0.5000 (  1104 PWs)   bands (ev):

   -39.9660 -18.7080 -18.7080 -18.6643   6.0760   7.1400   7.1400  10.4778
    10.7848  11.9725  11.9725

          k =-0.5000-0.5000-0.5000 (  1088 PWs)   bands (ev):

   -39.9627 -18.7025 -18.7025 -18.7025   6.9951   6.9951   6.9951   8.9999
    12.3777  12.3779  13.2876

     the Fermi energy is     9.4961 ev

!    total energy              =    -196.52347432 Ry
     total all-electron energy =     -2014.155038 Ry
     estimated scf accuracy    <       0.00000003 Ry
     smearing contrib. (-TS)   =       0.00092924 Ry
     internal energy E=F+TS    =    -196.52440356 Ry

     The total energy is F=E-TS. E is the sum of the following terms:
     one-electron contribution =     -39.82592808 Ry
     hartree contribution      =      24.37823060 Ry
     xc contribution           =     -20.10553221 Ry
     ewald contribution        =     -66.03387086 Ry
     one-center paw contrib.   =     -94.93730301 Ry

     convergence has been achieved in   8 iterations

     Writing all to output data dir ./tmp_ecut_40/scal_ecut_40.save/ :
     XML data file, charge density, pseudopotentials, collected wavefunctions

     init_run     :      0.41s CPU      0.48s WALL (       1 calls)
     electrons    :      2.32s CPU      2.95s WALL (       1 calls)

     Called by init_run:
     wfcinit      :      0.04s CPU      0.05s WALL (       1 calls)
     potinit      :      0.12s CPU      0.14s WALL (       1 calls)
     hinit0       :      0.21s CPU      0.21s WALL (       1 calls)

     Called by electrons:
     c_bands      :      0.89s CPU      0.94s WALL (       9 calls)
     sum_band     :      0.43s CPU      0.68s WALL (       9 calls)
     v_of_rho     :      0.04s CPU      0.05s WALL (       9 calls)
     newd         :      0.29s CPU      0.47s WALL (       9 calls)
     PAW_pot      :      0.76s CPU      0.96s WALL (       9 calls)
     mix_rho      :      0.00s CPU      0.00s WALL (       9 calls)

     Called by c_bands:
     init_us_2    :      0.03s CPU      0.03s WALL (     380 calls)
     cegterg      :      0.84s CPU      0.88s WALL (     180 calls)

     Called by *egterg:
     cdiaghg      :      0.05s CPU      0.06s WALL (     882 calls)
     h_psi        :      0.51s CPU      0.53s WALL (     922 calls)
     s_psi        :      0.09s CPU      0.09s WALL (     922 calls)
     g_psi        :      0.00s CPU      0.00s WALL (     722 calls)

     Called by h_psi:
     h_psi:calbec :      0.09s CPU      0.09s WALL (     922 calls)
     vloc_psi     :      0.32s CPU      0.34s WALL (     922 calls)
                                        0.00s GPU  (     922 calls)
     add_vuspsi   :      0.09s CPU      0.09s WALL (     922 calls)

     General routines
     calbec       :      0.12s CPU      0.12s WALL (    1102 calls)
     fft          :      0.10s CPU      0.11s WALL (     116 calls)
     ffts         :      0.02s CPU      0.02s WALL (      18 calls)
     fftw         :      0.32s CPU      0.34s WALL (   13524 calls)
     interpolate  :      0.02s CPU      0.02s WALL (       9 calls)

     Parallel routines

     PWSCF        :      2.82s CPU      3.53s WALL


   This run was terminated on:  20: 2:27   8Sep2026            

=------------------------------------------------------------------------------=
   JOB DONE.
=------------------------------------------------------------------------------=
