
     Program PWSCF v.7.5 starts on  8Sep2026 at 20: 2:33 

     This program is part of the open-source Quantum ESPRESSO suite
     for quantum simulation of materials; please cite
         "P. Giannozzi et al., J. Phys.:Condens. Matter 21 395502 (2009);
         "P. Giannozzi et al., J. Phys.:Condens. Matter 29 465901 (2017);
         "P. Giannozzi et al., J. Chem. Phys. 152 154105 (2020);
          URL http://www.quantum-espresso.org", 
     in publications or presentations arising from this work. More details at
     http://www.quantum-espresso.org/quote

     Parallel version (MPI & OpenMP), running on       2 processor cores
     Number of MPI processes:                 2
     Threads/MPI process:                     1

     MPI processes distributed on     1 nodes
     14536 MiB available memory on the printing compute node when the environment starts

     Waiting for input...
     Reading input from standard input
Warning: card &CELL ignored

     Current dimensions of program PWSCF are:
     Max number of different atomic species (ntypx) = 10
     Max number of k-points (npk) =  40000
     Max angular momentum in pseudopotentials (lmaxx) =  4
     file Sc.pbe-spn-kjpaw_psl.1.0.0.UPF: wavefunction(s)  3S 3P 3D renormalized
     file Al.pbe-n-kjpaw_psl.1.0.0.UPF: wavefunction(s)  3S 3P renormalized

     R & G space division:  proc/nbgrp/npool/nimage =       2
     Subspace diagonalization in iterative solution of the eigenvalue problem:
     a serial algorithm will be used


     Parallelization info
     --------------------
     sticks:   dense  smooth     PW     G-vecs:    dense   smooth      PW
     Min         782     388    120                23148     8186    1400
     Max         783     389    121                23149     8189    1401
     Sum        1565     777    241                46297    16375    2801

     Using Slab Decomposition



     bravais-lattice index     =            1
     lattice parameter (alat)  =       6.3873  a.u.
     unit-cell volume          =     260.5834 (a.u.)^3
     number of atoms/cell      =            2
     number of atomic types    =            2
     number of electrons       =        14.00
     number of Kohn-Sham states=           11
     kinetic-energy cutoff     =      60.0000  Ry
     charge density cutoff     =     480.0000  Ry
     scf convergence threshold =      1.0E-07
     mixing beta               =       0.7000
     number of iterations used =            8  plain     mixing
     Exchange-correlation= SLA  PW   PBX  PBC
                           (   1   4   3   4   0   0   0)

     celldm(1)=   6.387274  celldm(2)=   0.000000  celldm(3)=   0.000000
     celldm(4)=   0.000000  celldm(5)=   0.000000  celldm(6)=   0.000000

     crystal axes: (cart. coord. in units of alat)
               a(1) = (   1.000000   0.000000   0.000000 )  
               a(2) = (   0.000000   1.000000   0.000000 )  
               a(3) = (   0.000000   0.000000   1.000000 )  

     reciprocal axes: (cart. coord. in units 2 pi/alat)
               b(1) = (  1.000000  0.000000  0.000000 )  
               b(2) = (  0.000000  1.000000  0.000000 )  
               b(3) = (  0.000000  0.000000  1.000000 )  


     PseudoPot. # 1 for Sc read from file:
     /home/jdmin2003/qe-work/pseudo/Sc.pbe-spn-kjpaw_psl.1.0.0.UPF
     MD5 check sum: d5ac433e587a0148d610ca85a1be5559
     Pseudo is Projector augmented-wave + core cor, Zval = 11.0
     Generated using &quot;atomic&quot; code by A. Dal Corso  v.6.2.2
     Shape of augmentation charge: PSQ
     Using radial grid of 1173 points,  6 beta functions with: 
                l(1) =   0
                l(2) =   0
                l(3) =   1
                l(4) =   1
                l(5) =   2
                l(6) =   2
     Q(r) pseudized with 0 coefficients 


     PseudoPot. # 2 for Al read from file:
     /home/jdmin2003/qe-work/pseudo/Al.pbe-n-kjpaw_psl.1.0.0.UPF
     MD5 check sum: 502b6b27b9c6270cab5dd1084b96fa6d
     Pseudo is Projector augmented-wave + core cor, Zval =  3.0
     Generated using &quot;atomic&quot; code by A. Dal Corso  v.6.3
     Shape of augmentation charge: PSQ
     Using radial grid of 1135 points,  6 beta functions with: 
                l(1) =   0
                l(2) =   0
                l(3) =   1
                l(4) =   1
                l(5) =   2
                l(6) =   2
     Q(r) pseudized with 0 coefficients 


     atomic species   valence    mass     pseudopotential
     Sc               11.00    44.95600     Sc( 1.00)
     Al                3.00    26.98200     Al( 1.00)

     48 Sym. Ops., with inversion, found



   Cartesian axes

     site n.     atom                  positions (alat units)
         1        Sc     tau(   1) = (   0.0000000   0.0000000   0.0000000  )
         2        Al     tau(   2) = (   0.5000000   0.5000000   0.5000000  )

     number of k points=    20  Marzari-Vanderbilt smearing, width (Ry)=  0.0200
                       cart. coord. in units 2pi/alat
        k(    1) = (   0.0000000   0.0000000   0.0000000), wk =   0.0092593
        k(    2) = (   0.0000000   0.0000000   0.1666667), wk =   0.0555556
        k(    3) = (   0.0000000   0.0000000   0.3333333), wk =   0.0555556
        k(    4) = (   0.0000000   0.0000000  -0.5000000), wk =   0.0277778
        k(    5) = (   0.0000000   0.1666667   0.1666667), wk =   0.1111111
        k(    6) = (   0.0000000   0.1666667   0.3333333), wk =   0.2222222
        k(    7) = (   0.0000000   0.1666667  -0.5000000), wk =   0.1111111
        k(    8) = (   0.0000000   0.3333333   0.3333333), wk =   0.1111111
        k(    9) = (   0.0000000   0.3333333  -0.5000000), wk =   0.1111111
        k(   10) = (   0.0000000  -0.5000000  -0.5000000), wk =   0.0277778
        k(   11) = (   0.1666667   0.1666667   0.1666667), wk =   0.0740741
        k(   12) = (   0.1666667   0.1666667   0.3333333), wk =   0.2222222
        k(   13) = (   0.1666667   0.1666667  -0.5000000), wk =   0.1111111
        k(   14) = (   0.1666667   0.3333333   0.3333333), wk =   0.2222222
        k(   15) = (   0.1666667   0.3333333  -0.5000000), wk =   0.2222222
        k(   16) = (   0.1666667  -0.5000000  -0.5000000), wk =   0.0555556
        k(   17) = (   0.3333333   0.3333333   0.3333333), wk =   0.0740741
        k(   18) = (   0.3333333   0.3333333  -0.5000000), wk =   0.1111111
        k(   19) = (   0.3333333  -0.5000000  -0.5000000), wk =   0.0555556
        k(   20) = (  -0.5000000  -0.5000000  -0.5000000), wk =   0.0092593

     Dense  grid:    46297 G-vectors     FFT dimensions: (  45,  45,  45)

     Smooth grid:    16375 G-vectors     FFT dimensions: (  32,  32,  32)

     Estimated max dynamical RAM per process >      87.14 MB

     Estimated total dynamical RAM >     174.29 MB

     Check: negative core charge=   -0.000002

     Initial potential from superposition of free atoms

     starting charge      13.9951, renormalised to      14.0000
     Starting wfcs are   14 randomized atomic wfcs
     Checking if some PAW data can be deallocated... 

     total cpu time spent up to now is        0.7 secs

     per-process dynamical memory:    28.1 Mb

     Self-consistent Calculation

     iteration #  1     ecut=    60.00 Ry     beta= 0.70
     Davidson diagonalization with overlap
     ethr =  1.00E-02,  avg # of iterations =  2.1

     Threshold (ethr) on eigenvalues was too large:
     Diagonalizing with lowered threshold

     Davidson diagonalization with overlap
     ethr =  3.14E-05,  avg # of iterations = 10.9

     total cpu time spent up to now is        1.7 secs

     total energy              =    -196.52383799 Ry
     estimated scf accuracy    <       0.01716925 Ry

     iteration #  2     ecut=    60.00 Ry     beta= 0.70
     Davidson diagonalization with overlap
     ethr =  1.23E-04,  avg # of iterations =  2.9

     total cpu time spent up to now is        2.2 secs

     total energy              =    -196.52630688 Ry
     estimated scf accuracy    <       0.00279151 Ry

     iteration #  3     ecut=    60.00 Ry     beta= 0.70
     Davidson diagonalization with overlap
     ethr =  1.99E-05,  avg # of iterations =  4.7

     total cpu time spent up to now is        2.7 secs

     total energy              =    -196.52741428 Ry
     estimated scf accuracy    <       0.00008522 Ry

     iteration #  4     ecut=    60.00 Ry     beta= 0.70
     Davidson diagonalization with overlap
     c_bands:  1 eigenvalues not converged
     c_bands:  1 eigenvalues not converged
     ethr =  6.09E-07,  avg # of iterations =  9.9

     total cpu time spent up to now is        3.4 secs

     total energy              =    -196.52758336 Ry
     estimated scf accuracy    <       0.00000836 Ry

     iteration #  5     ecut=    60.00 Ry     beta= 0.70
     Davidson diagonalization with overlap
     ethr =  5.97E-08,  avg # of iterations =  5.0

     total cpu time spent up to now is        3.9 secs

     total energy              =    -196.52758756 Ry
     estimated scf accuracy    <       0.00000068 Ry

     iteration #  6     ecut=    60.00 Ry     beta= 0.70
     Davidson diagonalization with overlap
     ethr =  4.88E-09,  avg # of iterations =  6.2

     total cpu time spent up to now is        4.5 secs

     End of self-consistent calculation

          k = 0.0000 0.0000 0.0000 (  2103 PWs)   bands (ev):

   -39.9892 -18.5681 -18.5681 -18.5681   1.0789   8.8657   8.8657  12.1927
    12.1928  12.1929  13.1917

          k = 0.0000 0.0000 0.1667 (  2024 PWs)   bands (ev):

   -39.9856 -18.6112 -18.5638 -18.5638   1.4674   8.3683   9.0596  11.3672
    11.3674  12.2480  12.5069

          k = 0.0000 0.0000 0.3333 (  2040 PWs)   bands (ev):

   -39.9786 -18.6975 -18.5561 -18.5561   2.5672   6.6084   9.5146  10.5776
    10.5776  12.3605  12.7452

          k = 0.0000 0.0000-0.5000 (  2040 PWs)   bands (ev):

   -39.9751 -18.7401 -18.5522 -18.5522   3.8215   4.9806   9.7943  10.2928
    10.2928  12.4187  13.2630

          k = 0.0000 0.1667 0.1667 (  2031 PWs)   bands (ev):

   -39.9822 -18.6089 -18.6046 -18.5600   1.8401   8.4862   8.7099  10.6551
    11.2479  11.8843  13.0579

          k = 0.0000 0.1667 0.3333 (  2045 PWs)   bands (ev):

   -39.9752 -18.6918 -18.5977 -18.5523   2.8861   6.8760   9.1015  10.2610
    10.7082  11.8978  12.9326

          k = 0.0000 0.1667-0.5000 (  2052 PWs)   bands (ev):

   -39.9718 -18.7338 -18.5932 -18.5485   4.0072   5.3880   9.5674   9.8836
    10.4518  11.9834  13.2283

          k = 0.0000 0.3333 0.3333 (  2051 PWs)   bands (ev):

   -39.9684 -18.6823 -18.6780 -18.5448   3.7382   7.3314   7.8852  10.0554
    10.9230  11.3085  13.0382

          k = 0.0000 0.3333-0.5000 (  2046 PWs)   bands (ev):

   -39.9650 -18.7208 -18.6743 -18.5409   4.4800   6.4954   8.2928   9.6119
    10.8201  11.3148  13.1267

          k = 0.0000-0.5000-0.5000 (  2048 PWs)   bands (ev):

   -39.9616 -18.7144 -18.7144 -18.5372   4.8167   7.6348   7.6348   8.6958
    11.0398  11.0398  13.1462

          k = 0.1667 0.1667 0.1667 (  2028 PWs)   bands (ev):

   -39.9787 -18.6064 -18.6003 -18.6003   2.1979   8.6167   8.6167  10.1592
    11.1471  11.1472  13.9486

          k = 0.1667 0.1667 0.3333 (  2040 PWs)   bands (ev):

   -39.9718 -18.6862 -18.5951 -18.5917   3.1943   7.1334   8.9083  10.3044
    10.3688  11.3679  13.2601

          k = 0.1667 0.1667-0.5000 (  2054 PWs)   bands (ev):

   -39.9684 -18.7276 -18.5906 -18.5875   4.2137   5.7570   9.0764  10.0746
    10.6120  11.4285  13.2891

          k = 0.1667 0.3333 0.3333 (  2054 PWs)   bands (ev):

   -39.9651 -18.6770 -18.6729 -18.5848   4.0210   7.6039   7.8117  10.1143
    10.5449  11.1525  13.4441

          k = 0.1667 0.3333-0.5000 (  2048 PWs)   bands (ev):

   -39.9617 -18.7151 -18.6693 -18.5806   4.7467   6.6994   8.0608   9.8988
    11.0216  11.0917  13.2672

          k = 0.1667-0.5000-0.5000 (  2052 PWs)   bands (ev):

   -39.9583 -18.7089 -18.7089 -18.5765   5.1433   7.4552   7.4552   9.2559
    11.3228  11.3228  12.8834

          k = 0.3333 0.3333 0.3333 (  2064 PWs)   bands (ev):

   -39.9584 -18.6678 -18.6627 -18.6627   4.7831   7.6458   7.6458   9.9297
    11.0263  11.0263  12.4515

          k = 0.3333 0.3333-0.5000 (  2046 PWs)   bands (ev):

   -39.9550 -18.7036 -18.6607 -18.6575   5.4600   7.0245   7.5558  10.6894
    11.0188  11.1132  11.9279

          k = 0.3333-0.5000-0.5000 (  2048 PWs)   bands (ev):

   -39.9517 -18.6979 -18.6979 -18.6540   6.0707   7.1352   7.1352  10.4727
    10.7765  11.9636  11.9645

          k =-0.5000-0.5000-0.5000 (  2008 PWs)   bands (ev):

   -39.9483 -18.6922 -18.6922 -18.6922   6.9898   6.9898   6.9898   8.9969
    12.3754  12.3778  13.2123

     the Fermi energy is     9.4888 ev

!    total energy              =    -196.52758817 Ry
     total all-electron energy =     -2014.159152 Ry
     estimated scf accuracy    <       0.00000008 Ry
     smearing contrib. (-TS)   =       0.00092853 Ry
     internal energy E=F+TS    =    -196.52851671 Ry

     The total energy is F=E-TS. E is the sum of the following terms:
     one-electron contribution =     -39.84355883 Ry
     hartree contribution      =      24.39235349 Ry
     xc contribution           =     -20.10731105 Ry
     ewald contribution        =     -66.03387086 Ry
     one-center paw contrib.   =     -94.93612946 Ry

     convergence has been achieved in   6 iterations

     Writing all to output data dir ./tmp_ecut_60/scal_ecut_60.save/ :
     XML data file, charge density, pseudopotentials, collected wavefunctions

     init_run     :      0.50s CPU      0.57s WALL (       1 calls)
     electrons    :      3.03s CPU      3.84s WALL (       1 calls)

     Called by init_run:
     wfcinit      :      0.08s CPU      0.08s WALL (       1 calls)
     potinit      :      0.15s CPU      0.18s WALL (       1 calls)
     hinit0       :      0.20s CPU      0.20s WALL (       1 calls)

     Called by electrons:
     c_bands      :      1.54s CPU      1.64s WALL (       7 calls)
     sum_band     :      0.58s CPU      0.93s WALL (       7 calls)
     v_of_rho     :      0.05s CPU      0.06s WALL (       7 calls)
     newd         :      0.41s CPU      0.68s WALL (       7 calls)
     PAW_pot      :      0.59s CPU      0.75s WALL (       7 calls)
     mix_rho      :      0.00s CPU      0.01s WALL (       7 calls)

     Called by c_bands:
     init_us_2    :      0.04s CPU      0.04s WALL (     300 calls)
     cegterg      :      1.46s CPU      1.56s WALL (     140 calls)

     Called by *egterg:
     cdiaghg      :      0.06s CPU      0.07s WALL (     958 calls)
     h_psi        :      0.82s CPU      0.88s WALL (     998 calls)
     s_psi        :      0.16s CPU      0.17s WALL (     998 calls)
     g_psi        :      0.01s CPU      0.01s WALL (     838 calls)

     Called by h_psi:
     h_psi:calbec :      0.17s CPU      0.18s WALL (     998 calls)
     vloc_psi     :      0.49s CPU      0.52s WALL (     998 calls)
                                        0.00s GPU  (     998 calls)
     add_vuspsi   :      0.16s CPU      0.17s WALL (     998 calls)

     General routines
     calbec       :      0.21s CPU      0.22s WALL (    1138 calls)
     fft          :      0.06s CPU      0.07s WALL (      90 calls)
     ffts         :      0.04s CPU      0.04s WALL (      14 calls)
     fftw         :      0.46s CPU      0.49s WALL (   13566 calls)
     interpolate  :      0.05s CPU      0.05s WALL (       7 calls)

     Parallel routines

     PWSCF        :      3.62s CPU      4.51s WALL


   This run was terminated on:  20: 2:37   8Sep2026            

=------------------------------------------------------------------------------=
   JOB DONE.
=------------------------------------------------------------------------------=
