
     Program PWSCF v.7.5 starts on  8Sep2026 at 20: 5: 7 

     This program is part of the open-source Quantum ESPRESSO suite
     for quantum simulation of materials; please cite
         "P. Giannozzi et al., J. Phys.:Condens. Matter 21 395502 (2009);
         "P. Giannozzi et al., J. Phys.:Condens. Matter 29 465901 (2017);
         "P. Giannozzi et al., J. Chem. Phys. 152 154105 (2020);
          URL http://www.quantum-espresso.org", 
     in publications or presentations arising from this work. More details at
     http://www.quantum-espresso.org/quote

     Parallel version (MPI & OpenMP), running on       2 processor cores
     Number of MPI processes:                 2
     Threads/MPI process:                     1

     MPI processes distributed on     1 nodes
     14585 MiB available memory on the printing compute node when the environment starts

     Waiting for input...
     Reading input from standard input
Warning: card &CELL ignored

     Current dimensions of program PWSCF are:
     Max number of different atomic species (ntypx) = 10
     Max number of k-points (npk) =  40000
     Max angular momentum in pseudopotentials (lmaxx) =  4
     file Sc.pbe-spn-kjpaw_psl.1.0.0.UPF: wavefunction(s)  3S 3P 3D renormalized
     file Al.pbe-n-kjpaw_psl.1.0.0.UPF: wavefunction(s)  3S 3P renormalized

     R & G space division:  proc/nbgrp/npool/nimage =       2
     Subspace diagonalization in iterative solution of the eigenvalue problem:
     a serial algorithm will be used


     Parallelization info
     --------------------
     sticks:   dense  smooth     PW     G-vecs:    dense   smooth      PW
     Min         652     328     98                17636     6266    1054
     Max         653     329     99                17637     6267    1055
     Sum        1305     657    197                35273    12533    2109

     Using Slab Decomposition



     bravais-lattice index     =            1
     lattice parameter (alat)  =       6.3873  a.u.
     unit-cell volume          =     260.5834 (a.u.)^3
     number of atoms/cell      =            2
     number of atomic types    =            2
     number of electrons       =        14.00
     number of Kohn-Sham states=           11
     kinetic-energy cutoff     =      50.0000  Ry
     charge density cutoff     =     400.0000  Ry
     scf convergence threshold =      1.0E-07
     mixing beta               =       0.7000
     number of iterations used =            8  plain     mixing
     Exchange-correlation= SLA  PW   PBX  PBC
                           (   1   4   3   4   0   0   0)

     celldm(1)=   6.387274  celldm(2)=   0.000000  celldm(3)=   0.000000
     celldm(4)=   0.000000  celldm(5)=   0.000000  celldm(6)=   0.000000

     crystal axes: (cart. coord. in units of alat)
               a(1) = (   1.000000   0.000000   0.000000 )  
               a(2) = (   0.000000   1.000000   0.000000 )  
               a(3) = (   0.000000   0.000000   1.000000 )  

     reciprocal axes: (cart. coord. in units 2 pi/alat)
               b(1) = (  1.000000  0.000000  0.000000 )  
               b(2) = (  0.000000  1.000000  0.000000 )  
               b(3) = (  0.000000  0.000000  1.000000 )  


     PseudoPot. # 1 for Sc read from file:
     /home/jdmin2003/qe-work/pseudo/Sc.pbe-spn-kjpaw_psl.1.0.0.UPF
     MD5 check sum: d5ac433e587a0148d610ca85a1be5559
     Pseudo is Projector augmented-wave + core cor, Zval = 11.0
     Generated using &quot;atomic&quot; code by A. Dal Corso  v.6.2.2
     Shape of augmentation charge: PSQ
     Using radial grid of 1173 points,  6 beta functions with: 
                l(1) =   0
                l(2) =   0
                l(3) =   1
                l(4) =   1
                l(5) =   2
                l(6) =   2
     Q(r) pseudized with 0 coefficients 


     PseudoPot. # 2 for Al read from file:
     /home/jdmin2003/qe-work/pseudo/Al.pbe-n-kjpaw_psl.1.0.0.UPF
     MD5 check sum: 502b6b27b9c6270cab5dd1084b96fa6d
     Pseudo is Projector augmented-wave + core cor, Zval =  3.0
     Generated using &quot;atomic&quot; code by A. Dal Corso  v.6.3
     Shape of augmentation charge: PSQ
     Using radial grid of 1135 points,  6 beta functions with: 
                l(1) =   0
                l(2) =   0
                l(3) =   1
                l(4) =   1
                l(5) =   2
                l(6) =   2
     Q(r) pseudized with 0 coefficients 


     atomic species   valence    mass     pseudopotential
     Sc               11.00    44.95600     Sc( 1.00)
     Al                3.00    26.98200     Al( 1.00)

     48 Sym. Ops., with inversion, found



   Cartesian axes

     site n.     atom                  positions (alat units)
         1        Sc     tau(   1) = (   0.0000000   0.0000000   0.0000000  )
         2        Al     tau(   2) = (   0.5000000   0.5000000   0.5000000  )

     number of k points=    84  Marzari-Vanderbilt smearing, width (Ry)=  0.0200
                       cart. coord. in units 2pi/alat
        k(    1) = (   0.0000000   0.0000000   0.0000000), wk =   0.0011574
        k(    2) = (   0.0000000   0.0000000   0.0833333), wk =   0.0069444
        k(    3) = (   0.0000000   0.0000000   0.1666667), wk =   0.0069444
        k(    4) = (   0.0000000   0.0000000   0.2500000), wk =   0.0069444
        k(    5) = (   0.0000000   0.0000000   0.3333333), wk =   0.0069444
        k(    6) = (   0.0000000   0.0000000   0.4166667), wk =   0.0069444
        k(    7) = (   0.0000000   0.0000000  -0.5000000), wk =   0.0034722
        k(    8) = (   0.0000000   0.0833333   0.0833333), wk =   0.0138889
        k(    9) = (   0.0000000   0.0833333   0.1666667), wk =   0.0277778
        k(   10) = (   0.0000000   0.0833333   0.2500000), wk =   0.0277778
        k(   11) = (   0.0000000   0.0833333   0.3333333), wk =   0.0277778
        k(   12) = (   0.0000000   0.0833333   0.4166667), wk =   0.0277778
        k(   13) = (   0.0000000   0.0833333  -0.5000000), wk =   0.0138889
        k(   14) = (   0.0000000   0.1666667   0.1666667), wk =   0.0138889
        k(   15) = (   0.0000000   0.1666667   0.2500000), wk =   0.0277778
        k(   16) = (   0.0000000   0.1666667   0.3333333), wk =   0.0277778
        k(   17) = (   0.0000000   0.1666667   0.4166667), wk =   0.0277778
        k(   18) = (   0.0000000   0.1666667  -0.5000000), wk =   0.0138889
        k(   19) = (   0.0000000   0.2500000   0.2500000), wk =   0.0138889
        k(   20) = (   0.0000000   0.2500000   0.3333333), wk =   0.0277778
        k(   21) = (   0.0000000   0.2500000   0.4166667), wk =   0.0277778
        k(   22) = (   0.0000000   0.2500000  -0.5000000), wk =   0.0138889
        k(   23) = (   0.0000000   0.3333333   0.3333333), wk =   0.0138889
        k(   24) = (   0.0000000   0.3333333   0.4166667), wk =   0.0277778
        k(   25) = (   0.0000000   0.3333333  -0.5000000), wk =   0.0138889
        k(   26) = (   0.0000000   0.4166667   0.4166667), wk =   0.0138889
        k(   27) = (   0.0000000   0.4166667  -0.5000000), wk =   0.0138889
        k(   28) = (   0.0000000  -0.5000000  -0.5000000), wk =   0.0034722
        k(   29) = (   0.0833333   0.0833333   0.0833333), wk =   0.0092593
        k(   30) = (   0.0833333   0.0833333   0.1666667), wk =   0.0277778
        k(   31) = (   0.0833333   0.0833333   0.2500000), wk =   0.0277778
        k(   32) = (   0.0833333   0.0833333   0.3333333), wk =   0.0277778
        k(   33) = (   0.0833333   0.0833333   0.4166667), wk =   0.0277778
        k(   34) = (   0.0833333   0.0833333  -0.5000000), wk =   0.0138889
        k(   35) = (   0.0833333   0.1666667   0.1666667), wk =   0.0277778
        k(   36) = (   0.0833333   0.1666667   0.2500000), wk =   0.0555556
        k(   37) = (   0.0833333   0.1666667   0.3333333), wk =   0.0555556
        k(   38) = (   0.0833333   0.1666667   0.4166667), wk =   0.0555556
        k(   39) = (   0.0833333   0.1666667  -0.5000000), wk =   0.0277778
        k(   40) = (   0.0833333   0.2500000   0.2500000), wk =   0.0277778
        k(   41) = (   0.0833333   0.2500000   0.3333333), wk =   0.0555556
        k(   42) = (   0.0833333   0.2500000   0.4166667), wk =   0.0555556
        k(   43) = (   0.0833333   0.2500000  -0.5000000), wk =   0.0277778
        k(   44) = (   0.0833333   0.3333333   0.3333333), wk =   0.0277778
        k(   45) = (   0.0833333   0.3333333   0.4166667), wk =   0.0555556
        k(   46) = (   0.0833333   0.3333333  -0.5000000), wk =   0.0277778
        k(   47) = (   0.0833333   0.4166667   0.4166667), wk =   0.0277778
        k(   48) = (   0.0833333   0.4166667  -0.5000000), wk =   0.0277778
        k(   49) = (   0.0833333  -0.5000000  -0.5000000), wk =   0.0069444
        k(   50) = (   0.1666667   0.1666667   0.1666667), wk =   0.0092593
        k(   51) = (   0.1666667   0.1666667   0.2500000), wk =   0.0277778
        k(   52) = (   0.1666667   0.1666667   0.3333333), wk =   0.0277778
        k(   53) = (   0.1666667   0.1666667   0.4166667), wk =   0.0277778
        k(   54) = (   0.1666667   0.1666667  -0.5000000), wk =   0.0138889
        k(   55) = (   0.1666667   0.2500000   0.2500000), wk =   0.0277778
        k(   56) = (   0.1666667   0.2500000   0.3333333), wk =   0.0555556
        k(   57) = (   0.1666667   0.2500000   0.4166667), wk =   0.0555556
        k(   58) = (   0.1666667   0.2500000  -0.5000000), wk =   0.0277778
        k(   59) = (   0.1666667   0.3333333   0.3333333), wk =   0.0277778
        k(   60) = (   0.1666667   0.3333333   0.4166667), wk =   0.0555556
        k(   61) = (   0.1666667   0.3333333  -0.5000000), wk =   0.0277778
        k(   62) = (   0.1666667   0.4166667   0.4166667), wk =   0.0277778
        k(   63) = (   0.1666667   0.4166667  -0.5000000), wk =   0.0277778
        k(   64) = (   0.1666667  -0.5000000  -0.5000000), wk =   0.0069444
        k(   65) = (   0.2500000   0.2500000   0.2500000), wk =   0.0092593
        k(   66) = (   0.2500000   0.2500000   0.3333333), wk =   0.0277778
        k(   67) = (   0.2500000   0.2500000   0.4166667), wk =   0.0277778
        k(   68) = (   0.2500000   0.2500000  -0.5000000), wk =   0.0138889
        k(   69) = (   0.2500000   0.3333333   0.3333333), wk =   0.0277778
        k(   70) = (   0.2500000   0.3333333   0.4166667), wk =   0.0555556
        k(   71) = (   0.2500000   0.3333333  -0.5000000), wk =   0.0277778
        k(   72) = (   0.2500000   0.4166667   0.4166667), wk =   0.0277778
        k(   73) = (   0.2500000   0.4166667  -0.5000000), wk =   0.0277778
        k(   74) = (   0.2500000  -0.5000000  -0.5000000), wk =   0.0069444
        k(   75) = (   0.3333333   0.3333333   0.3333333), wk =   0.0092593
        k(   76) = (   0.3333333   0.3333333   0.4166667), wk =   0.0277778
        k(   77) = (   0.3333333   0.3333333  -0.5000000), wk =   0.0138889
        k(   78) = (   0.3333333   0.4166667   0.4166667), wk =   0.0277778
        k(   79) = (   0.3333333   0.4166667  -0.5000000), wk =   0.0277778
        k(   80) = (   0.3333333  -0.5000000  -0.5000000), wk =   0.0069444
        k(   81) = (   0.4166667   0.4166667   0.4166667), wk =   0.0092593
        k(   82) = (   0.4166667   0.4166667  -0.5000000), wk =   0.0138889
        k(   83) = (   0.4166667  -0.5000000  -0.5000000), wk =   0.0069444
        k(   84) = (  -0.5000000  -0.5000000  -0.5000000), wk =   0.0011574

     Dense  grid:    35273 G-vectors     FFT dimensions: (  45,  45,  45)

     Smooth grid:    12533 G-vectors     FFT dimensions: (  30,  30,  30)

     Estimated max dynamical RAM per process >      76.04 MB

     Estimated total dynamical RAM >     152.09 MB

     Check: negative core charge=   -0.000007

     Initial potential from superposition of free atoms

     starting charge      13.9951, renormalised to      14.0000
     Starting wfcs are   14 randomized atomic wfcs
     Checking if some PAW data can be deallocated... 

     total cpu time spent up to now is        0.9 secs

     per-process dynamical memory:    34.5 Mb

     Self-consistent Calculation

     iteration #  1     ecut=    50.00 Ry     beta= 0.70
     Davidson diagonalization with overlap
     ethr =  1.00E-02,  avg # of iterations =  2.5

     Threshold (ethr) on eigenvalues was too large:
     Diagonalizing with lowered threshold

     Davidson diagonalization with overlap
     c_bands:  1 eigenvalues not converged
     ethr =  3.70E-05,  avg # of iterations = 10.3

     total cpu time spent up to now is        3.5 secs

     total energy              =    -196.52140190 Ry
     estimated scf accuracy    <       0.01749519 Ry

     iteration #  2     ecut=    50.00 Ry     beta= 0.70
     Davidson diagonalization with overlap
     ethr =  1.25E-04,  avg # of iterations =  4.3

     total cpu time spent up to now is        4.5 secs

     total energy              =    -196.52347831 Ry
     estimated scf accuracy    <       0.00508977 Ry

     iteration #  3     ecut=    50.00 Ry     beta= 0.70
     Davidson diagonalization with overlap
     ethr =  3.64E-05,  avg # of iterations =  4.2

     total cpu time spent up to now is        5.4 secs

     total energy              =    -196.52501699 Ry
     estimated scf accuracy    <       0.00036607 Ry

     iteration #  4     ecut=    50.00 Ry     beta= 0.70
     Davidson diagonalization with overlap
     c_bands:  1 eigenvalues not converged
     ethr =  2.61E-06,  avg # of iterations =  6.9

     total cpu time spent up to now is        6.8 secs

     total energy              =    -196.52518398 Ry
     estimated scf accuracy    <       0.00000197 Ry

     iteration #  5     ecut=    50.00 Ry     beta= 0.70
     Davidson diagonalization with overlap
     c_bands:  1 eigenvalues not converged
     c_bands:  1 eigenvalues not converged
     ethr =  1.41E-08,  avg # of iterations =  9.0

     total cpu time spent up to now is        8.2 secs

     total energy              =    -196.52519264 Ry
     estimated scf accuracy    <       0.00000241 Ry

     iteration #  6     ecut=    50.00 Ry     beta= 0.70
     Davidson diagonalization with overlap
     ethr =  1.41E-08,  avg # of iterations =  6.5

     total cpu time spent up to now is        9.3 secs

     total energy              =    -196.52519333 Ry
     estimated scf accuracy    <       0.00000265 Ry

     iteration #  7     ecut=    50.00 Ry     beta= 0.70
     Davidson diagonalization with overlap
     ethr =  1.41E-08,  avg # of iterations =  2.9

     total cpu time spent up to now is       10.2 secs

     total energy              =    -196.52519363 Ry
     estimated scf accuracy    <       0.00000012 Ry

     iteration #  8     ecut=    50.00 Ry     beta= 0.70
     Davidson diagonalization with overlap
     ethr =  8.81E-10,  avg # of iterations =  7.3

     total cpu time spent up to now is       11.5 secs

     total energy              =    -196.52519382 Ry
     estimated scf accuracy    <       0.00000018 Ry

     iteration #  9     ecut=    50.00 Ry     beta= 0.70
     Davidson diagonalization with overlap
     ethr =  8.81E-10,  avg # of iterations =  1.0

     total cpu time spent up to now is       12.3 secs

     End of self-consistent calculation

          k = 0.0000 0.0000 0.0000 (  1551 PWs)   bands (ev):

   -39.9869 -18.5630 -18.5630 -18.5630   1.0780   8.8725   8.8725  12.1985
    12.1985  12.1985  13.1913

          k = 0.0000 0.0000 0.0833 (  1547 PWs)   bands (ev):

   -39.9859 -18.5747 -18.5620 -18.5620   1.1761   8.7693   8.9224  11.8756
    11.8756  12.2129  12.9090

          k = 0.0000 0.0000 0.1667 (  1543 PWs)   bands (ev):

   -39.9834 -18.6066 -18.5592 -18.5592   1.4665   8.3729   9.0655  11.3713
    11.3713  12.2528  12.5074

          k = 0.0000 0.0000 0.2500 (  1554 PWs)   bands (ev):

   -39.9799 -18.6499 -18.5553 -18.5553   1.9372   7.6062   9.2793  10.9237
    10.9237  12.3083  12.4640

          k = 0.0000 0.0000 0.3333 (  1534 PWs)   bands (ev):

   -39.9764 -18.6928 -18.5513 -18.5513   2.5666   6.6103   9.5208  10.5828
    10.5828  12.3651  12.7477

          k = 0.0000 0.0000 0.4167 (  1542 PWs)   bands (ev):

   -39.9738 -18.7241 -18.5485 -18.5485   3.3030   5.5987   9.7208  10.3703
    10.3703  12.4076  13.1042

          k = 0.0000 0.0000-0.5000 (  1542 PWs)   bands (ev):

   -39.9728 -18.7354 -18.5475 -18.5475   3.8208   4.9816   9.8004  10.2983
    10.2983  12.4233  13.2662

          k = 0.0000 0.0833 0.0833 (  1548 PWs)   bands (ev):

   -39.9850 -18.5744 -18.5729 -18.5610   1.2733   8.7628   8.8858  11.5482
    11.7484  12.1142  13.1456

          k = 0.0000 0.0833 0.1667 (  1548 PWs)   bands (ev):

   -39.9824 -18.6055 -18.5706 -18.5581   1.5608   8.4211   8.9922  11.0723
    11.3575  12.1055  12.7805

          k = 0.0000 0.0833 0.2500 (  1550 PWs)   bands (ev):

   -39.9789 -18.6486 -18.5666 -18.5543   2.0264   7.6671   9.2026  10.7210
    10.9450  12.1610  12.6242

          k = 0.0000 0.0833 0.3333 (  1556 PWs)   bands (ev):

   -39.9754 -18.6913 -18.5626 -18.5504   2.6478   6.6792   9.4539  10.4437
    10.6174  12.2268  12.8111

          k = 0.0000 0.0833 0.4167 (  1550 PWs)   bands (ev):

   -39.9729 -18.7224 -18.5596 -18.5475   3.3708   5.6818   9.6947  10.2165
    10.4103  12.2777  13.1147

          k = 0.0000 0.0833-0.5000 (  1554 PWs)   bands (ev):

   -39.9719 -18.7337 -18.5586 -18.5465   3.8684   5.0853   9.8310  10.0917
    10.3396  12.2967  13.2589

          k = 0.0000 0.1667 0.1667 (  1548 PWs)   bands (ev):

   -39.9799 -18.6043 -18.6000 -18.5553   1.8393   8.4906   8.7148  10.6595
    11.2518  11.8895  13.0586

          k = 0.0000 0.1667 0.2500 (  1557 PWs)   bands (ev):

   -39.9764 -18.6449 -18.5975 -18.5515   2.2892   7.8415   8.8358  10.4399
    10.9905  11.8473  12.8999

          k = 0.0000 0.1667 0.3333 (  1551 PWs)   bands (ev):

   -39.9730 -18.6871 -18.5930 -18.5476   2.8856   6.8781   9.1063  10.2664
    10.7135  11.9028  12.9350

          k = 0.0000 0.1667 0.4167 (  1548 PWs)   bands (ev):

   -39.9704 -18.7178 -18.5897 -18.5448   3.5667   5.9263   9.3907  10.0490
    10.5238  11.9636  13.1279

          k = 0.0000 0.1667-0.5000 (  1562 PWs)   bands (ev):

   -39.9695 -18.7291 -18.5886 -18.5438   4.0071   5.3890   9.5716   9.8896
    10.4575  11.9883  13.2316

          k = 0.0000 0.2500 0.2500 (  1566 PWs)   bands (ev):

   -39.9730 -18.6425 -18.6368 -18.5477   2.7106   8.0331   8.1682  10.3259
    10.9834  11.5951  13.0124

          k = 0.0000 0.2500 0.3333 (  1553 PWs)   bands (ev):

   -39.9695 -18.6814 -18.6343 -18.5438   3.2615   7.1732   8.4444  10.2035
    10.8430  11.5510  13.0176

          k = 0.0000 0.2500 0.4167 (  1556 PWs)   bands (ev):

   -39.9670 -18.7116 -18.6306 -18.5410   3.8672   6.3160   8.7620   9.9977
    10.6907  11.6021  13.1157

          k = 0.0000 0.2500-0.5000 (  1556 PWs)   bands (ev):

   -39.9661 -18.7226 -18.6292 -18.5400   4.2223   5.8717   8.9221   9.8692
    10.6320  11.6298  13.1785

          k = 0.0000 0.3333 0.3333 (  1568 PWs)   bands (ev):

   -39.9661 -18.6777 -18.6734 -18.5401   3.7384   7.3343   7.8866  10.0606
    10.9283  11.3142  13.0413

          k = 0.0000 0.3333 0.4167 (  1568 PWs)   bands (ev):

   -39.9636 -18.7054 -18.6712 -18.5373   4.2288   6.8089   8.1061   9.7884
    10.8726  11.2945  13.0934

          k = 0.0000 0.3333-0.5000 (  1556 PWs)   bands (ev):

   -39.9627 -18.7162 -18.6696 -18.5362   4.4814   6.4962   8.2947   9.6166
    10.8260  11.3204  13.1301

          k = 0.0000 0.4167 0.4167 (  1562 PWs)   bands (ev):

   -39.9611 -18.7015 -18.7000 -18.5345   4.5656   7.2212   7.6999   9.3811
    10.9962  11.1166  13.1122

          k = 0.0000 0.4167-0.5000 (  1572 PWs)   bands (ev):

   -39.9602 -18.7115 -18.6991 -18.5336   4.7172   7.1891   7.8193   9.1029
    10.9839  11.1166  13.1338

          k = 0.0000-0.5000-0.5000 (  1596 PWs)   bands (ev):

   -39.9593 -18.7099 -18.7099 -18.5327   4.8189   7.6348   7.6348   8.6998
    11.0458  11.0458  13.1499

          k = 0.0833 0.0833 0.0833 (  1548 PWs)   bands (ev):

   -39.9841 -18.5740 -18.5719 -18.5719   1.3695   8.8097   8.8097  11.2874
    11.7992  11.7992  13.5137

          k = 0.0833 0.0833 0.1667 (  1547 PWs)   bands (ev):

   -39.9815 -18.6043 -18.5702 -18.5689   1.6541   8.4659   8.9450  10.8873
    11.2905  11.8782  13.0580

          k = 0.0833 0.0833 0.2500 (  1545 PWs)   bands (ev):

   -39.9780 -18.6472 -18.5662 -18.5649   2.1148   7.7266   9.1508  10.6540
    10.8225  11.9768  12.8056

          k = 0.0833 0.0833 0.3333 (  1545 PWs)   bands (ev):

   -39.9745 -18.6898 -18.5621 -18.5609   2.7283   6.7480   9.3975  10.4380
    10.5195  12.0677  12.8910

          k = 0.0833 0.0833 0.4167 (  1552 PWs)   bands (ev):

   -39.9720 -18.7208 -18.5591 -18.5580   3.4383   5.7644   9.6494  10.1375
    10.4186  12.1304  13.1362

          k = 0.0833 0.0833-0.5000 (  1552 PWs)   bands (ev):

   -39.9710 -18.7321 -18.5580 -18.5569   3.9174   5.1868   9.8678   9.9109
    10.3789  12.1535  13.2620

          k = 0.0833 0.1667 0.1667 (  1552 PWs)   bands (ev):

   -39.9790 -18.6032 -18.5988 -18.5666   1.9299   8.5248   8.7284  10.5289
    11.1527  11.6198  13.3667

          k = 0.0833 0.1667 0.2500 (  1550 PWs)   bands (ev):

   -39.9755 -18.6436 -18.5963 -18.5626   2.3750   7.8957   8.8454  10.3950
    10.8145  11.6363  13.1114

          k = 0.0833 0.1667 0.3333 (  1553 PWs)   bands (ev):

   -39.9720 -18.6856 -18.5919 -18.5586   2.9641   6.9455   9.0836  10.2982
    10.5683  11.7221  13.0444

          k = 0.0833 0.1667 0.4167 (  1552 PWs)   bands (ev):

   -39.9695 -18.7162 -18.5886 -18.5557   3.6335   6.0067   9.3172  10.0706
    10.5133  11.7906  13.1719

          k = 0.0833 0.1667-0.5000 (  1564 PWs)   bands (ev):

   -39.9686 -18.7274 -18.5875 -18.5547   4.0599   5.4837   9.4398   9.9445
    10.4976  11.8176  13.2562

          k = 0.0833 0.2500 0.2500 (  1561 PWs)   bands (ev):

   -39.9721 -18.6412 -18.6355 -18.5587   2.7922   8.1081   8.1781  10.3375
    10.7454  11.4238  13.2289

          k = 0.0833 0.2500 0.3333 (  1559 PWs)   bands (ev):

   -39.9686 -18.6800 -18.6330 -18.5547   3.3369   7.2384   8.4450  10.2567
    10.6645  11.4082  13.1515

          k = 0.0833 0.2500 0.4167 (  1556 PWs)   bands (ev):

   -39.9661 -18.7100 -18.6293 -18.5519   3.9341   6.3896   8.7120  10.0490
    10.6753  11.4464  13.1818

          k = 0.0833 0.2500-0.5000 (  1558 PWs)   bands (ev):

   -39.9652 -18.7210 -18.6280 -18.5508   4.2814   5.9529   8.8330   9.9422
    10.6773  11.4680  13.2239

          k = 0.0833 0.3333 0.3333 (  1570 PWs)   bands (ev):

   -39.9652 -18.6762 -18.6720 -18.5509   3.8104   7.4117   7.8679  10.1020
    10.7801  11.2627  13.1549

          k = 0.0833 0.3333 0.4167 (  1564 PWs)   bands (ev):

   -39.9627 -18.7039 -18.6698 -18.5480   4.2977   6.8681   8.0722   9.8333
    10.8640  11.2396  13.1576

          k = 0.0833 0.3333-0.5000 (  1562 PWs)   bands (ev):

   -39.9618 -18.7147 -18.6683 -18.5469   4.5492   6.5531   8.2323   9.6868
    10.8812  11.2497  13.1749

          k = 0.0833 0.4167 0.4167 (  1562 PWs)   bands (ev):

   -39.9602 -18.7000 -18.6986 -18.5451   4.6393   7.2585   7.6589   9.4371
    11.0140  11.1573  13.1463

          k = 0.0833 0.4167-0.5000 (  1562 PWs)   bands (ev):

   -39.9593 -18.7100 -18.6976 -18.5440   4.7945   7.2005   7.7682   9.1909
    11.0518  11.1523  13.1525

          k = 0.0833-0.5000-0.5000 (  1556 PWs)   bands (ev):

   -39.9584 -18.7083 -18.7083 -18.5430   4.9015   7.5856   7.5856   8.8423
    11.1203  11.1203  13.1543

          k = 0.1667 0.1667 0.1667 (  1556 PWs)   bands (ev):

   -39.9765 -18.6017 -18.5957 -18.5957   2.1972   8.6211   8.6211  10.1623
    11.1520  11.1520  13.9499

          k = 0.1667 0.1667 0.2500 (  1554 PWs)   bands (ev):

   -39.9730 -18.6400 -18.5949 -18.5914   2.6275   8.0409   8.7611  10.0890
    10.7162  11.2659  13.4953

          k = 0.1667 0.1667 0.3333 (  1554 PWs)   bands (ev):

   -39.9696 -18.6816 -18.5904 -18.5870   3.1939   7.1355   8.9130  10.3081
    10.3747  11.3732  13.2625

          k = 0.1667 0.1667 0.4167 (  1555 PWs)   bands (ev):

   -39.9670 -18.7118 -18.5871 -18.5839   3.8276   6.2390   9.0342  10.1563
    10.5306  11.4226  13.2546

          k = 0.1667 0.1667-0.5000 (  1568 PWs)   bands (ev):

   -39.9661 -18.7229 -18.5859 -18.5828   4.2139   5.7580   9.0814  10.0805
    10.6163  11.4337  13.2923

          k = 0.1667 0.2500 0.2500 (  1557 PWs)   bands (ev):

   -39.9696 -18.6376 -18.6321 -18.5887   3.0318   8.2018   8.2784   9.9934
    10.6205  11.0982  13.6960

          k = 0.1667 0.2500 0.3333 (  1554 PWs)   bands (ev):

   -39.9662 -18.6760 -18.6296 -18.5843   3.5581   7.4088   8.4188  10.2289
    10.4087  11.1542  13.4423

          k = 0.1667 0.2500 0.4167 (  1553 PWs)   bands (ev):

   -39.9637 -18.7058 -18.6260 -18.5812   4.1294   6.5946   8.5437  10.2067
    10.6074  11.1588  13.3150

          k = 0.1667 0.2500-0.5000 (  1548 PWs)   bands (ev):

   -39.9627 -18.7167 -18.6246 -18.5800   4.4545   6.1819   8.5873  10.1554
    10.8017  11.0984  13.3022

          k = 0.1667 0.3333 0.3333 (  1557 PWs)   bands (ev):

   -39.9628 -18.6723 -18.6683 -18.5801   4.0215   7.6071   7.8141  10.1192
    10.5494  11.1580  13.4475

          k = 0.1667 0.3333 0.4167 (  1560 PWs)   bands (ev):

   -39.9603 -18.6998 -18.6661 -18.5770   4.5001   7.0161   7.9738   9.9655
    10.8155  11.1790  13.3128

          k = 0.1667 0.3333-0.5000 (  1548 PWs)   bands (ev):

   -39.9594 -18.7105 -18.6646 -18.5758   4.7482   6.7007   8.0642   9.9037
    11.0256  11.0970  13.2710

          k = 0.1667 0.4167 0.4167 (  1557 PWs)   bands (ev):

   -39.9578 -18.6960 -18.6947 -18.5739   4.8566   7.3322   7.5498   9.6389
    11.0669  11.2700  13.2075

          k = 0.1667 0.4167-0.5000 (  1562 PWs)   bands (ev):

   -39.9569 -18.7060 -18.6937 -18.5728   5.0229   7.2078   7.6342   9.4840
    11.2338  11.2543  13.0561

          k = 0.1667-0.5000-0.5000 (  1556 PWs)   bands (ev):

   -39.9560 -18.7043 -18.7043 -18.5716   5.1459   7.4568   7.4568   9.2600
    11.3275  11.3275  12.8832

          k = 0.2500 0.2500 0.2500 (  1550 PWs)   bands (ev):

   -39.9662 -18.6347 -18.6273 -18.6273   3.4145   8.2256   8.2256   9.6113
    10.8030  10.8030  13.9734

          k = 0.2500 0.2500 0.3333 (  1557 PWs)   bands (ev):

   -39.9628 -18.6706 -18.6269 -18.6226   3.9089   7.6089   8.2369   9.8677
    10.5996  10.9979  13.5971

          k = 0.2500 0.2500 0.4167 (  1553 PWs)   bands (ev):

   -39.9603 -18.7000 -18.6233 -18.6192   4.4366   6.8824   8.2359  10.3716
    10.4920  11.0731  13.3400

          k = 0.2500 0.2500-0.5000 (  1548 PWs)   bands (ev):

   -39.9594 -18.7107 -18.6219 -18.6179   4.7264   6.5151   8.2335  10.4602
    10.7176  10.9812  13.2969

          k = 0.2500 0.3333 0.3333 (  1556 PWs)   bands (ev):

   -39.9594 -18.6669 -18.6632 -18.6199   4.3565   7.7347   7.7731   9.8979
    10.7010  11.0725  13.1498

          k = 0.2500 0.3333 0.4167 (  1549 PWs)   bands (ev):

   -39.9570 -18.6942 -18.6610 -18.6164   4.8211   7.1742   7.8150  10.1559
    10.8016  11.2124  12.7134

          k = 0.2500 0.3333-0.5000 (  1548 PWs)   bands (ev):

   -39.9560 -18.7048 -18.6595 -18.6152   5.0636   6.8798   7.8293  10.2755
    10.9676  11.1887  12.5366

          k = 0.2500 0.4167 0.4167 (  1555 PWs)   bands (ev):

   -39.9545 -18.6905 -18.6893 -18.6131   5.2034   7.3632   7.4066  10.0436
    11.1234  11.4276  12.1871

          k = 0.2500 0.4167-0.5000 (  1560 PWs)   bands (ev):

   -39.9536 -18.7004 -18.6884 -18.6119   5.3904   7.1756   7.4605  10.0200
    11.4036  11.4050  11.9928

          k = 0.2500-0.5000-0.5000 (  1568 PWs)   bands (ev):

   -39.9527 -18.6989 -18.6989 -18.6107   5.5442   7.2925   7.2925   9.9237
    11.6281  11.6281  11.6612

          k = 0.3333 0.3333 0.3333 (  1568 PWs)   bands (ev):

   -39.9561 -18.6631 -18.6581 -18.6581   4.7843   7.6497   7.6497   9.9311
    11.0314  11.0314  12.4523

          k = 0.3333 0.3333 0.4167 (  1551 PWs)   bands (ev):

   -39.9536 -18.6886 -18.6573 -18.6542   5.2287   7.2644   7.5849  10.3233
    11.0228  11.2824  11.9539

          k = 0.3333 0.3333-0.5000 (  1546 PWs)   bands (ev):

   -39.9527 -18.6990 -18.6559 -18.6529   5.4620   7.0273   7.5606  10.6931
    11.0234  11.1124  11.9307

          k = 0.3333 0.4167 0.4167 (  1557 PWs)   bands (ev):

   -39.9512 -18.6850 -18.6839 -18.6520   5.6477   7.2695   7.3082  10.4872
    11.0328  11.5904  11.6098

          k = 0.3333 0.4167-0.5000 (  1556 PWs)   bands (ev):

   -39.9503 -18.6949 -18.6829 -18.6506   5.8662   7.1127   7.2888  10.6751
    10.7733  11.5716  11.9196

          k = 0.3333-0.5000-0.5000 (  1572 PWs)   bands (ev):

   -39.9494 -18.6934 -18.6934 -18.6494   6.0736   7.1390   7.1390  10.4719
    10.7797  11.9661  11.9662

          k = 0.4167 0.4167 0.4167 (  1553 PWs)   bands (ev):

   -39.9487 -18.6814 -18.6799 -18.6799   6.1128   7.1727   7.1727  10.0827
    11.4922  11.7126  11.7126

          k = 0.4167 0.4167-0.5000 (  1566 PWs)   bands (ev):

   -39.9478 -18.6908 -18.6795 -18.6785   6.3698   7.0551   7.1378   9.8284
    11.5886  11.7579  12.1547

          k = 0.4167-0.5000-0.5000 (  1552 PWs)   bands (ev):

   -39.9470 -18.6893 -18.6893 -18.6774   6.6596   7.0324   7.0324   9.4703
    11.7259  12.2562  12.2563

          k =-0.5000-0.5000-0.5000 (  1568 PWs)   bands (ev):

   -39.9461 -18.6878 -18.6878 -18.6878   6.9942   6.9942   6.9942   8.9944
    12.3769  12.3772  13.2169

     the Fermi energy is     9.5177 ev

!    total energy              =    -196.52519376 Ry
     total all-electron energy =     -2014.156757 Ry
     estimated scf accuracy    <       0.00000007 Ry
     smearing contrib. (-TS)   =       0.00008374 Ry
     internal energy E=F+TS    =    -196.52527751 Ry

     The total energy is F=E-TS. E is the sum of the following terms:
     one-electron contribution =     -39.83861591 Ry
     hartree contribution      =      24.39229211 Ry
     xc contribution           =     -20.10783321 Ry
     ewald contribution        =     -66.03387086 Ry
     one-center paw contrib.   =     -94.93724964 Ry

     convergence has been achieved in   9 iterations

     Writing all to output data dir ./tmp_kpt_12/scal_kpt_12.save/ :
     XML data file, charge density, pseudopotentials, collected wavefunctions

     init_run     :      0.69s CPU      0.77s WALL (       1 calls)
     electrons    :     10.12s CPU     11.41s WALL (       1 calls)

     Called by init_run:
     wfcinit      :      0.26s CPU      0.29s WALL (       1 calls)
     potinit      :      0.15s CPU      0.18s WALL (       1 calls)
     hinit0       :      0.18s CPU      0.18s WALL (       1 calls)

     Called by electrons:
     c_bands      :      7.54s CPU      7.93s WALL (      10 calls)
     sum_band     :      1.32s CPU      1.75s WALL (      10 calls)
     v_of_rho     :      0.08s CPU      0.09s WALL (      10 calls)
     newd         :      0.45s CPU      0.74s WALL (      10 calls)
     PAW_pot      :      0.85s CPU      1.07s WALL (      10 calls)
     mix_rho      :      0.01s CPU      0.01s WALL (      10 calls)

     Called by c_bands:
     init_us_2    :      0.18s CPU      0.19s WALL (    1764 calls)
     cegterg      :      7.20s CPU      7.57s WALL (     840 calls)

     Called by *egterg:
     cdiaghg      :      0.34s CPU      0.36s WALL (    5367 calls)
     h_psi        :      4.59s CPU      4.84s WALL (    5535 calls)
     s_psi        :      0.65s CPU      0.69s WALL (    5535 calls)
     g_psi        :      0.04s CPU      0.04s WALL (    4611 calls)

     Called by h_psi:
     h_psi:calbec :      0.67s CPU      0.71s WALL (    5535 calls)
     vloc_psi     :      3.22s CPU      3.40s WALL (    5535 calls)
                                        0.00s GPU  (    5535 calls)
     add_vuspsi   :      0.65s CPU      0.69s WALL (    5535 calls)

     General routines
     calbec       :      0.86s CPU      0.91s WALL (    6375 calls)
     fft          :      0.07s CPU      0.08s WALL (     129 calls)
     ffts         :      0.05s CPU      0.05s WALL (      20 calls)
     fftw         :      3.33s CPU      3.51s WALL (   71500 calls)
     interpolate  :      0.05s CPU      0.05s WALL (      10 calls)

     Parallel routines

     PWSCF        :     10.89s CPU     12.30s WALL


   This run was terminated on:  20: 5:19   8Sep2026            

=------------------------------------------------------------------------------=
   JOB DONE.
=------------------------------------------------------------------------------=
