
     Program PWSCF v.7.5 starts on  8Sep2026 at 20: 4:46 

     This program is part of the open-source Quantum ESPRESSO suite
     for quantum simulation of materials; please cite
         "P. Giannozzi et al., J. Phys.:Condens. Matter 21 395502 (2009);
         "P. Giannozzi et al., J. Phys.:Condens. Matter 29 465901 (2017);
         "P. Giannozzi et al., J. Chem. Phys. 152 154105 (2020);
          URL http://www.quantum-espresso.org", 
     in publications or presentations arising from this work. More details at
     http://www.quantum-espresso.org/quote

     Parallel version (MPI & OpenMP), running on       2 processor cores
     Number of MPI processes:                 2
     Threads/MPI process:                     1

     MPI processes distributed on     1 nodes
     14679 MiB available memory on the printing compute node when the environment starts

     Waiting for input...
     Reading input from standard input
Warning: card &CELL ignored

     Current dimensions of program PWSCF are:
     Max number of different atomic species (ntypx) = 10
     Max number of k-points (npk) =  40000
     Max angular momentum in pseudopotentials (lmaxx) =  4
     file Sc.pbe-spn-kjpaw_psl.1.0.0.UPF: wavefunction(s)  3S 3P 3D renormalized
     file Al.pbe-n-kjpaw_psl.1.0.0.UPF: wavefunction(s)  3S 3P renormalized

     R & G space division:  proc/nbgrp/npool/nimage =       2
     Subspace diagonalization in iterative solution of the eigenvalue problem:
     a serial algorithm will be used


     Parallelization info
     --------------------
     sticks:   dense  smooth     PW     G-vecs:    dense   smooth      PW
     Min         652     328     98                17636     6266    1054
     Max         653     329     99                17637     6267    1055
     Sum        1305     657    197                35273    12533    2109

     Using Slab Decomposition



     bravais-lattice index     =            1
     lattice parameter (alat)  =       6.3873  a.u.
     unit-cell volume          =     260.5834 (a.u.)^3
     number of atoms/cell      =            2
     number of atomic types    =            2
     number of electrons       =        14.00
     number of Kohn-Sham states=           11
     kinetic-energy cutoff     =      50.0000  Ry
     charge density cutoff     =     400.0000  Ry
     scf convergence threshold =      1.0E-07
     mixing beta               =       0.7000
     number of iterations used =            8  plain     mixing
     Exchange-correlation= SLA  PW   PBX  PBC
                           (   1   4   3   4   0   0   0)

     celldm(1)=   6.387274  celldm(2)=   0.000000  celldm(3)=   0.000000
     celldm(4)=   0.000000  celldm(5)=   0.000000  celldm(6)=   0.000000

     crystal axes: (cart. coord. in units of alat)
               a(1) = (   1.000000   0.000000   0.000000 )  
               a(2) = (   0.000000   1.000000   0.000000 )  
               a(3) = (   0.000000   0.000000   1.000000 )  

     reciprocal axes: (cart. coord. in units 2 pi/alat)
               b(1) = (  1.000000  0.000000  0.000000 )  
               b(2) = (  0.000000  1.000000  0.000000 )  
               b(3) = (  0.000000  0.000000  1.000000 )  


     PseudoPot. # 1 for Sc read from file:
     /home/jdmin2003/qe-work/pseudo/Sc.pbe-spn-kjpaw_psl.1.0.0.UPF
     MD5 check sum: d5ac433e587a0148d610ca85a1be5559
     Pseudo is Projector augmented-wave + core cor, Zval = 11.0
     Generated using &quot;atomic&quot; code by A. Dal Corso  v.6.2.2
     Shape of augmentation charge: PSQ
     Using radial grid of 1173 points,  6 beta functions with: 
                l(1) =   0
                l(2) =   0
                l(3) =   1
                l(4) =   1
                l(5) =   2
                l(6) =   2
     Q(r) pseudized with 0 coefficients 


     PseudoPot. # 2 for Al read from file:
     /home/jdmin2003/qe-work/pseudo/Al.pbe-n-kjpaw_psl.1.0.0.UPF
     MD5 check sum: 502b6b27b9c6270cab5dd1084b96fa6d
     Pseudo is Projector augmented-wave + core cor, Zval =  3.0
     Generated using &quot;atomic&quot; code by A. Dal Corso  v.6.3
     Shape of augmentation charge: PSQ
     Using radial grid of 1135 points,  6 beta functions with: 
                l(1) =   0
                l(2) =   0
                l(3) =   1
                l(4) =   1
                l(5) =   2
                l(6) =   2
     Q(r) pseudized with 0 coefficients 


     atomic species   valence    mass     pseudopotential
     Sc               11.00    44.95600     Sc( 1.00)
     Al                3.00    26.98200     Al( 1.00)

     48 Sym. Ops., with inversion, found



   Cartesian axes

     site n.     atom                  positions (alat units)
         1        Sc     tau(   1) = (   0.0000000   0.0000000   0.0000000  )
         2        Al     tau(   2) = (   0.5000000   0.5000000   0.5000000  )

     number of k points=    20  Marzari-Vanderbilt smearing, width (Ry)=  0.0200
                       cart. coord. in units 2pi/alat
        k(    1) = (   0.0000000   0.0000000   0.0000000), wk =   0.0092593
        k(    2) = (   0.0000000   0.0000000   0.1666667), wk =   0.0555556
        k(    3) = (   0.0000000   0.0000000   0.3333333), wk =   0.0555556
        k(    4) = (   0.0000000   0.0000000  -0.5000000), wk =   0.0277778
        k(    5) = (   0.0000000   0.1666667   0.1666667), wk =   0.1111111
        k(    6) = (   0.0000000   0.1666667   0.3333333), wk =   0.2222222
        k(    7) = (   0.0000000   0.1666667  -0.5000000), wk =   0.1111111
        k(    8) = (   0.0000000   0.3333333   0.3333333), wk =   0.1111111
        k(    9) = (   0.0000000   0.3333333  -0.5000000), wk =   0.1111111
        k(   10) = (   0.0000000  -0.5000000  -0.5000000), wk =   0.0277778
        k(   11) = (   0.1666667   0.1666667   0.1666667), wk =   0.0740741
        k(   12) = (   0.1666667   0.1666667   0.3333333), wk =   0.2222222
        k(   13) = (   0.1666667   0.1666667  -0.5000000), wk =   0.1111111
        k(   14) = (   0.1666667   0.3333333   0.3333333), wk =   0.2222222
        k(   15) = (   0.1666667   0.3333333  -0.5000000), wk =   0.2222222
        k(   16) = (   0.1666667  -0.5000000  -0.5000000), wk =   0.0555556
        k(   17) = (   0.3333333   0.3333333   0.3333333), wk =   0.0740741
        k(   18) = (   0.3333333   0.3333333  -0.5000000), wk =   0.1111111
        k(   19) = (   0.3333333  -0.5000000  -0.5000000), wk =   0.0555556
        k(   20) = (  -0.5000000  -0.5000000  -0.5000000), wk =   0.0092593

     Dense  grid:    35273 G-vectors     FFT dimensions: (  45,  45,  45)

     Smooth grid:    12533 G-vectors     FFT dimensions: (  30,  30,  30)

     Estimated max dynamical RAM per process >      67.69 MB

     Estimated total dynamical RAM >     135.37 MB

     Check: negative core charge=   -0.000007

     Initial potential from superposition of free atoms

     starting charge      13.9951, renormalised to      14.0000
     Starting wfcs are   14 randomized atomic wfcs
     Checking if some PAW data can be deallocated... 

     total cpu time spent up to now is        0.6 secs

     per-process dynamical memory:    25.4 Mb

     Self-consistent Calculation

     iteration #  1     ecut=    50.00 Ry     beta= 0.70
     Davidson diagonalization with overlap
     ethr =  1.00E-02,  avg # of iterations =  2.4

     Threshold (ethr) on eigenvalues was too large:
     Diagonalizing with lowered threshold

     Davidson diagonalization with overlap
     ethr =  3.63E-05,  avg # of iterations =  9.4

     total cpu time spent up to now is        1.5 secs

     total energy              =    -196.52125550 Ry
     estimated scf accuracy    <       0.01753798 Ry

     iteration #  2     ecut=    50.00 Ry     beta= 0.70
     Davidson diagonalization with overlap
     ethr =  1.25E-04,  avg # of iterations =  4.0

     total cpu time spent up to now is        2.0 secs

     total energy              =    -196.52344834 Ry
     estimated scf accuracy    <       0.00482116 Ry

     iteration #  3     ecut=    50.00 Ry     beta= 0.70
     Davidson diagonalization with overlap
     ethr =  3.44E-05,  avg # of iterations =  4.0

     total cpu time spent up to now is        2.4 secs

     total energy              =    -196.52490879 Ry
     estimated scf accuracy    <       0.00032765 Ry

     iteration #  4     ecut=    50.00 Ry     beta= 0.70
     Davidson diagonalization with overlap
     ethr =  2.34E-06,  avg # of iterations =  6.4

     total cpu time spent up to now is        2.9 secs

     total energy              =    -196.52507919 Ry
     estimated scf accuracy    <       0.00000293 Ry

     iteration #  5     ecut=    50.00 Ry     beta= 0.70
     Davidson diagonalization with overlap
     c_bands:  1 eigenvalues not converged
     c_bands:  1 eigenvalues not converged
     ethr =  2.10E-08,  avg # of iterations =  8.8

     total cpu time spent up to now is        3.5 secs

     total energy              =    -196.52508721 Ry
     estimated scf accuracy    <       0.00000225 Ry

     iteration #  6     ecut=    50.00 Ry     beta= 0.70
     Davidson diagonalization with overlap
     ethr =  1.61E-08,  avg # of iterations =  6.2

     total cpu time spent up to now is        3.9 secs

     total energy              =    -196.52508782 Ry
     estimated scf accuracy    <       0.00000267 Ry

     iteration #  7     ecut=    50.00 Ry     beta= 0.70
     Davidson diagonalization with overlap
     ethr =  1.61E-08,  avg # of iterations =  2.7

     total cpu time spent up to now is        4.4 secs

     total energy              =    -196.52508815 Ry
     estimated scf accuracy    <       0.00000010 Ry

     iteration #  8     ecut=    50.00 Ry     beta= 0.70
     Davidson diagonalization with overlap
     ethr =  7.26E-10,  avg # of iterations =  7.9

     total cpu time spent up to now is        4.9 secs

     total energy              =    -196.52508834 Ry
     estimated scf accuracy    <       0.00000018 Ry

     iteration #  9     ecut=    50.00 Ry     beta= 0.70
     Davidson diagonalization with overlap
     ethr =  7.26E-10,  avg # of iterations =  1.1

     total cpu time spent up to now is        5.3 secs

     End of self-consistent calculation

          k = 0.0000 0.0000 0.0000 (  1551 PWs)   bands (ev):

   -39.9902 -18.5663 -18.5663 -18.5663   1.0794   8.8712   8.8712  12.1954
    12.1955  12.1955  13.1931

          k = 0.0000 0.0000 0.1667 (  1543 PWs)   bands (ev):

   -39.9866 -18.6099 -18.5624 -18.5624   1.4679   8.3725   9.0641  11.3696
    11.3696  12.2498  12.5077

          k = 0.0000 0.0000 0.3333 (  1534 PWs)   bands (ev):

   -39.9796 -18.6960 -18.5546 -18.5546   2.5681   6.6109   9.5191  10.5812
    10.5812  12.3620  12.7461

          k = 0.0000 0.0000-0.5000 (  1542 PWs)   bands (ev):

   -39.9761 -18.7387 -18.5507 -18.5507   3.8229   4.9820   9.7984  10.2968
    10.2968  12.4201  13.2638

          k = 0.0000 0.1667 0.1667 (  1548 PWs)   bands (ev):

   -39.9832 -18.6075 -18.6032 -18.5586   1.8408   8.4903   8.7141  10.6581
    11.2502  11.8866  13.0586

          k = 0.0000 0.1667 0.3333 (  1551 PWs)   bands (ev):

   -39.9762 -18.6903 -18.5962 -18.5509   2.8871   6.8787   9.1056  10.2648
    10.7118  11.9000  12.9333

          k = 0.0000 0.1667-0.5000 (  1562 PWs)   bands (ev):

   -39.9727 -18.7323 -18.5918 -18.5470   4.0091   5.3894   9.5711   9.8878
    10.4558  11.9854  13.2292

          k = 0.0000 0.3333 0.3333 (  1568 PWs)   bands (ev):

   -39.9694 -18.6809 -18.6766 -18.5433   3.7401   7.3345   7.8874  10.0592
    10.9263  11.3116  13.0393

          k = 0.0000 0.3333-0.5000 (  1556 PWs)   bands (ev):

   -39.9660 -18.7194 -18.6729 -18.5395   4.4832   6.4968   8.2953   9.6155
    10.8239  11.3178  13.1276

          k = 0.0000-0.5000-0.5000 (  1596 PWs)   bands (ev):

   -39.9626 -18.7131 -18.7131 -18.5359   4.8205   7.6360   7.6360   8.6987
    11.0433  11.0433  13.1471

          k = 0.1667 0.1667 0.1667 (  1556 PWs)   bands (ev):

   -39.9797 -18.6050 -18.5990 -18.5990   2.1986   8.6207   8.6207  10.1619
    11.1499  11.1499  13.9496

          k = 0.1667 0.1667 0.3333 (  1554 PWs)   bands (ev):

   -39.9728 -18.6848 -18.5937 -18.5903   3.1955   7.1361   8.9125  10.3073
    10.3728  11.3708  13.2606

          k = 0.1667 0.1667-0.5000 (  1568 PWs)   bands (ev):

   -39.9694 -18.7262 -18.5892 -18.5861   4.2159   5.7585   9.0808  10.0787
    10.6151  11.4313  13.2898

          k = 0.1667 0.3333 0.3333 (  1557 PWs)   bands (ev):

   -39.9660 -18.6755 -18.6715 -18.5834   4.0231   7.6073   7.8147  10.1178
    10.5482  11.1558  13.4456

          k = 0.1667 0.3333-0.5000 (  1548 PWs)   bands (ev):

   -39.9626 -18.7137 -18.6678 -18.5791   4.7500   6.7013   8.0644   9.9024
    11.0243  11.0948  13.2681

          k = 0.1667-0.5000-0.5000 (  1556 PWs)   bands (ev):

   -39.9593 -18.7075 -18.7075 -18.5749   5.1475   7.4576   7.4576   9.2589
    11.3256  11.3256  12.8847

          k = 0.3333 0.3333 0.3333 (  1568 PWs)   bands (ev):

   -39.9593 -18.6663 -18.6613 -18.6613   4.7859   7.6499   7.6499   9.9313
    11.0298  11.0298  12.4530

          k = 0.3333 0.3333-0.5000 (  1546 PWs)   bands (ev):

   -39.9560 -18.7022 -18.6591 -18.6561   5.4635   7.0277   7.5606  10.6917
    11.0219  11.1146  11.9299

          k = 0.3333-0.5000-0.5000 (  1572 PWs)   bands (ev):

   -39.9527 -18.6966 -18.6966 -18.6526   6.0748   7.1393   7.1393  10.4745
    10.7787  11.9653  11.9654

          k =-0.5000-0.5000-0.5000 (  1568 PWs)   bands (ev):

   -39.9493 -18.6911 -18.6911 -18.6911   6.9943   6.9943   6.9943   8.9983
    12.3767  12.3768  13.2136

     the Fermi energy is     9.4924 ev

!    total energy              =    -196.52508827 Ry
     total all-electron energy =     -2014.156652 Ry
     estimated scf accuracy    <       0.00000008 Ry
     smearing contrib. (-TS)   =       0.00093203 Ry
     internal energy E=F+TS    =    -196.52602031 Ry

     The total energy is F=E-TS. E is the sum of the following terms:
     one-electron contribution =     -39.83756869 Ry
     hartree contribution      =      24.39087250 Ry
     xc contribution           =     -20.10806914 Ry
     ewald contribution        =     -66.03387086 Ry
     one-center paw contrib.   =     -94.93738412 Ry

     convergence has been achieved in   9 iterations

     Writing all to output data dir ./tmp_kpt_6/scal_kpt_6.save/ :
     XML data file, charge density, pseudopotentials, collected wavefunctions

     init_run     :      0.48s CPU      0.56s WALL (       1 calls)
     electrons    :      3.77s CPU      4.64s WALL (       1 calls)

     Called by init_run:
     wfcinit      :      0.06s CPU      0.07s WALL (       1 calls)
     potinit      :      0.16s CPU      0.18s WALL (       1 calls)
     hinit0       :      0.19s CPU      0.19s WALL (       1 calls)

     Called by electrons:
     c_bands      :      1.75s CPU      1.85s WALL (      10 calls)
     sum_band     :      0.69s CPU      1.06s WALL (      10 calls)
     v_of_rho     :      0.08s CPU      0.09s WALL (      10 calls)
     newd         :      0.47s CPU      0.75s WALL (      10 calls)
     PAW_pot      :      0.91s CPU      1.07s WALL (      10 calls)
     mix_rho      :      0.01s CPU      0.01s WALL (      10 calls)

     Called by c_bands:
     init_us_2    :      0.04s CPU      0.05s WALL (     420 calls)
     cegterg      :      1.67s CPU      1.77s WALL (     200 calls)

     Called by *egterg:
     cdiaghg      :      0.08s CPU      0.08s WALL (    1239 calls)
     h_psi        :      1.07s CPU      1.14s WALL (    1279 calls)
     s_psi        :      0.15s CPU      0.16s WALL (    1279 calls)
     g_psi        :      0.01s CPU      0.01s WALL (    1059 calls)

     Called by h_psi:
     h_psi:calbec :      0.15s CPU      0.16s WALL (    1279 calls)
     vloc_psi     :      0.76s CPU      0.81s WALL (    1279 calls)
                                        0.00s GPU  (    1279 calls)
     add_vuspsi   :      0.15s CPU      0.16s WALL (    1279 calls)

     General routines
     calbec       :      0.20s CPU      0.21s WALL (    1479 calls)
     fft          :      0.07s CPU      0.08s WALL (     129 calls)
     ffts         :      0.05s CPU      0.05s WALL (      20 calls)
     fftw         :      0.78s CPU      0.83s WALL (   16698 calls)
     interpolate  :      0.05s CPU      0.05s WALL (      10 calls)

     Parallel routines

     PWSCF        :      4.34s CPU      5.30s WALL


   This run was terminated on:  20: 4:52   8Sep2026            

=------------------------------------------------------------------------------=
   JOB DONE.
=------------------------------------------------------------------------------=
