
     Program PWSCF v.7.5 starts on  8Sep2026 at 20: 4:52 

     This program is part of the open-source Quantum ESPRESSO suite
     for quantum simulation of materials; please cite
         "P. Giannozzi et al., J. Phys.:Condens. Matter 21 395502 (2009);
         "P. Giannozzi et al., J. Phys.:Condens. Matter 29 465901 (2017);
         "P. Giannozzi et al., J. Chem. Phys. 152 154105 (2020);
          URL http://www.quantum-espresso.org", 
     in publications or presentations arising from this work. More details at
     http://www.quantum-espresso.org/quote

     Parallel version (MPI & OpenMP), running on       2 processor cores
     Number of MPI processes:                 2
     Threads/MPI process:                     1

     MPI processes distributed on     1 nodes
     14628 MiB available memory on the printing compute node when the environment starts

     Waiting for input...
     Reading input from standard input
Warning: card &CELL ignored

     Current dimensions of program PWSCF are:
     Max number of different atomic species (ntypx) = 10
     Max number of k-points (npk) =  40000
     Max angular momentum in pseudopotentials (lmaxx) =  4
     file Sc.pbe-spn-kjpaw_psl.1.0.0.UPF: wavefunction(s)  3S 3P 3D renormalized
     file Al.pbe-n-kjpaw_psl.1.0.0.UPF: wavefunction(s)  3S 3P renormalized

     R & G space division:  proc/nbgrp/npool/nimage =       2
     Subspace diagonalization in iterative solution of the eigenvalue problem:
     a serial algorithm will be used


     Parallelization info
     --------------------
     sticks:   dense  smooth     PW     G-vecs:    dense   smooth      PW
     Min         652     328     98                17636     6266    1054
     Max         653     329     99                17637     6267    1055
     Sum        1305     657    197                35273    12533    2109

     Using Slab Decomposition



     bravais-lattice index     =            1
     lattice parameter (alat)  =       6.3873  a.u.
     unit-cell volume          =     260.5834 (a.u.)^3
     number of atoms/cell      =            2
     number of atomic types    =            2
     number of electrons       =        14.00
     number of Kohn-Sham states=           11
     kinetic-energy cutoff     =      50.0000  Ry
     charge density cutoff     =     400.0000  Ry
     scf convergence threshold =      1.0E-07
     mixing beta               =       0.7000
     number of iterations used =            8  plain     mixing
     Exchange-correlation= SLA  PW   PBX  PBC
                           (   1   4   3   4   0   0   0)

     celldm(1)=   6.387274  celldm(2)=   0.000000  celldm(3)=   0.000000
     celldm(4)=   0.000000  celldm(5)=   0.000000  celldm(6)=   0.000000

     crystal axes: (cart. coord. in units of alat)
               a(1) = (   1.000000   0.000000   0.000000 )  
               a(2) = (   0.000000   1.000000   0.000000 )  
               a(3) = (   0.000000   0.000000   1.000000 )  

     reciprocal axes: (cart. coord. in units 2 pi/alat)
               b(1) = (  1.000000  0.000000  0.000000 )  
               b(2) = (  0.000000  1.000000  0.000000 )  
               b(3) = (  0.000000  0.000000  1.000000 )  


     PseudoPot. # 1 for Sc read from file:
     /home/jdmin2003/qe-work/pseudo/Sc.pbe-spn-kjpaw_psl.1.0.0.UPF
     MD5 check sum: d5ac433e587a0148d610ca85a1be5559
     Pseudo is Projector augmented-wave + core cor, Zval = 11.0
     Generated using &quot;atomic&quot; code by A. Dal Corso  v.6.2.2
     Shape of augmentation charge: PSQ
     Using radial grid of 1173 points,  6 beta functions with: 
                l(1) =   0
                l(2) =   0
                l(3) =   1
                l(4) =   1
                l(5) =   2
                l(6) =   2
     Q(r) pseudized with 0 coefficients 


     PseudoPot. # 2 for Al read from file:
     /home/jdmin2003/qe-work/pseudo/Al.pbe-n-kjpaw_psl.1.0.0.UPF
     MD5 check sum: 502b6b27b9c6270cab5dd1084b96fa6d
     Pseudo is Projector augmented-wave + core cor, Zval =  3.0
     Generated using &quot;atomic&quot; code by A. Dal Corso  v.6.3
     Shape of augmentation charge: PSQ
     Using radial grid of 1135 points,  6 beta functions with: 
                l(1) =   0
                l(2) =   0
                l(3) =   1
                l(4) =   1
                l(5) =   2
                l(6) =   2
     Q(r) pseudized with 0 coefficients 


     atomic species   valence    mass     pseudopotential
     Sc               11.00    44.95600     Sc( 1.00)
     Al                3.00    26.98200     Al( 1.00)

     48 Sym. Ops., with inversion, found



   Cartesian axes

     site n.     atom                  positions (alat units)
         1        Sc     tau(   1) = (   0.0000000   0.0000000   0.0000000  )
         2        Al     tau(   2) = (   0.5000000   0.5000000   0.5000000  )

     number of k points=    35  Marzari-Vanderbilt smearing, width (Ry)=  0.0200
                       cart. coord. in units 2pi/alat
        k(    1) = (   0.0000000   0.0000000   0.0000000), wk =   0.0039062
        k(    2) = (   0.0000000   0.0000000   0.1250000), wk =   0.0234375
        k(    3) = (   0.0000000   0.0000000   0.2500000), wk =   0.0234375
        k(    4) = (   0.0000000   0.0000000   0.3750000), wk =   0.0234375
        k(    5) = (   0.0000000   0.0000000  -0.5000000), wk =   0.0117188
        k(    6) = (   0.0000000   0.1250000   0.1250000), wk =   0.0468750
        k(    7) = (   0.0000000   0.1250000   0.2500000), wk =   0.0937500
        k(    8) = (   0.0000000   0.1250000   0.3750000), wk =   0.0937500
        k(    9) = (   0.0000000   0.1250000  -0.5000000), wk =   0.0468750
        k(   10) = (   0.0000000   0.2500000   0.2500000), wk =   0.0468750
        k(   11) = (   0.0000000   0.2500000   0.3750000), wk =   0.0937500
        k(   12) = (   0.0000000   0.2500000  -0.5000000), wk =   0.0468750
        k(   13) = (   0.0000000   0.3750000   0.3750000), wk =   0.0468750
        k(   14) = (   0.0000000   0.3750000  -0.5000000), wk =   0.0468750
        k(   15) = (   0.0000000  -0.5000000  -0.5000000), wk =   0.0117188
        k(   16) = (   0.1250000   0.1250000   0.1250000), wk =   0.0312500
        k(   17) = (   0.1250000   0.1250000   0.2500000), wk =   0.0937500
        k(   18) = (   0.1250000   0.1250000   0.3750000), wk =   0.0937500
        k(   19) = (   0.1250000   0.1250000  -0.5000000), wk =   0.0468750
        k(   20) = (   0.1250000   0.2500000   0.2500000), wk =   0.0937500
        k(   21) = (   0.1250000   0.2500000   0.3750000), wk =   0.1875000
        k(   22) = (   0.1250000   0.2500000  -0.5000000), wk =   0.0937500
        k(   23) = (   0.1250000   0.3750000   0.3750000), wk =   0.0937500
        k(   24) = (   0.1250000   0.3750000  -0.5000000), wk =   0.0937500
        k(   25) = (   0.1250000  -0.5000000  -0.5000000), wk =   0.0234375
        k(   26) = (   0.2500000   0.2500000   0.2500000), wk =   0.0312500
        k(   27) = (   0.2500000   0.2500000   0.3750000), wk =   0.0937500
        k(   28) = (   0.2500000   0.2500000  -0.5000000), wk =   0.0468750
        k(   29) = (   0.2500000   0.3750000   0.3750000), wk =   0.0937500
        k(   30) = (   0.2500000   0.3750000  -0.5000000), wk =   0.0937500
        k(   31) = (   0.2500000  -0.5000000  -0.5000000), wk =   0.0234375
        k(   32) = (   0.3750000   0.3750000   0.3750000), wk =   0.0312500
        k(   33) = (   0.3750000   0.3750000  -0.5000000), wk =   0.0468750
        k(   34) = (   0.3750000  -0.5000000  -0.5000000), wk =   0.0234375
        k(   35) = (  -0.5000000  -0.5000000  -0.5000000), wk =   0.0039062

     Dense  grid:    35273 G-vectors     FFT dimensions: (  45,  45,  45)

     Smooth grid:    12533 G-vectors     FFT dimensions: (  30,  30,  30)

     Estimated max dynamical RAM per process >      69.64 MB

     Estimated total dynamical RAM >     139.29 MB

     Check: negative core charge=   -0.000007

     Initial potential from superposition of free atoms

     starting charge      13.9951, renormalised to      14.0000
     Starting wfcs are   14 randomized atomic wfcs
     Checking if some PAW data can be deallocated... 

     total cpu time spent up to now is        0.8 secs

     per-process dynamical memory:    27.6 Mb

     Self-consistent Calculation

     iteration #  1     ecut=    50.00 Ry     beta= 0.70
     Davidson diagonalization with overlap
     ethr =  1.00E-02,  avg # of iterations =  2.5

     Threshold (ethr) on eigenvalues was too large:
     Diagonalizing with lowered threshold

     Davidson diagonalization with overlap
     ethr =  3.56E-05,  avg # of iterations =  9.7

     total cpu time spent up to now is        2.6 secs

     total energy              =    -196.52179115 Ry
     estimated scf accuracy    <       0.01681510 Ry

     iteration #  2     ecut=    50.00 Ry     beta= 0.70
     Davidson diagonalization with overlap
     ethr =  1.20E-04,  avg # of iterations =  3.8

     total cpu time spent up to now is        3.1 secs

     total energy              =    -196.52393968 Ry
     estimated scf accuracy    <       0.00342510 Ry

     iteration #  3     ecut=    50.00 Ry     beta= 0.70
     Davidson diagonalization with overlap
     ethr =  2.45E-05,  avg # of iterations =  4.0

     total cpu time spent up to now is        3.7 secs

     total energy              =    -196.52500076 Ry
     estimated scf accuracy    <       0.00022531 Ry

     iteration #  4     ecut=    50.00 Ry     beta= 0.70
     Davidson diagonalization with overlap
     c_bands:  1 eigenvalues not converged
     c_bands:  1 eigenvalues not converged
     c_bands:  1 eigenvalues not converged
     ethr =  1.61E-06,  avg # of iterations =  7.9

     total cpu time spent up to now is        4.5 secs

     total energy              =    -196.52516995 Ry
     estimated scf accuracy    <       0.00001553 Ry

     iteration #  5     ecut=    50.00 Ry     beta= 0.70
     Davidson diagonalization with overlap
     c_bands:  1 eigenvalues not converged
     ethr =  1.11E-07,  avg # of iterations =  5.4

     total cpu time spent up to now is        5.1 secs

     total energy              =    -196.52517625 Ry
     estimated scf accuracy    <       0.00000074 Ry

     iteration #  6     ecut=    50.00 Ry     beta= 0.70
     Davidson diagonalization with overlap
     ethr =  5.27E-09,  avg # of iterations =  6.2

     total cpu time spent up to now is        5.7 secs

     total energy              =    -196.52517678 Ry
     estimated scf accuracy    <       0.00000060 Ry

     iteration #  7     ecut=    50.00 Ry     beta= 0.70
     Davidson diagonalization with overlap
     ethr =  4.27E-09,  avg # of iterations =  3.3

     total cpu time spent up to now is        6.3 secs

     End of self-consistent calculation

          k = 0.0000 0.0000 0.0000 (  1551 PWs)   bands (ev):

   -39.9769 -18.5535 -18.5535 -18.5535   1.0766   8.8760   8.8760  12.2063
    12.2063  12.2064  13.1896

          k = 0.0000 0.0000 0.1250 (  1555 PWs)   bands (ev):

   -39.9748 -18.5792 -18.5513 -18.5513   1.2965   8.6195   8.9870  11.6277
    11.6278  12.2380  12.6810

          k = 0.0000 0.0000 0.2500 (  1554 PWs)   bands (ev):

   -39.9699 -18.6405 -18.5458 -18.5458   1.9358   7.6067   9.2834  10.9285
    10.9285  12.3164  12.4676

          k = 0.0000 0.0000 0.3750 (  1546 PWs)   bands (ev):

   -39.9649 -18.7012 -18.5402 -18.5402   2.9263   6.0926   9.6357  10.4641
    10.4641  12.3972  12.9406

          k = 0.0000 0.0000-0.5000 (  1542 PWs)   bands (ev):

   -39.9628 -18.7261 -18.5379 -18.5379   3.8187   4.9816   9.8054  10.3029
    10.3029  12.4315  13.2733

          k = 0.0000 0.1250 0.1250 (  1542 PWs)   bands (ev):

   -39.9728 -18.5781 -18.5752 -18.5490   1.5114   8.6425   8.8571  11.0597
    11.4797  12.0232  13.1026

          k = 0.0000 0.1250 0.2500 (  1553 PWs)   bands (ev):

   -39.9679 -18.6376 -18.5706 -18.5436   2.1353   7.7418   9.0728  10.5652
    10.9724  12.0182  12.7704

          k = 0.0000 0.1250 0.3750 (  1562 PWs)   bands (ev):

   -39.9629 -18.6977 -18.5646 -18.5381   3.0947   6.2598   9.4694  10.2256
    10.5481  12.1171  13.0036

          k = 0.0000 0.1250-0.5000 (  1558 PWs)   bands (ev):

   -39.9609 -18.7224 -18.5621 -18.5358   3.9250   5.2131   9.8625   9.8666
    10.3947  12.1645  13.2554

          k = 0.0000 0.2500 0.2500 (  1566 PWs)   bands (ev):

   -39.9630 -18.6331 -18.6274 -18.5382   2.7092   8.0343   8.1687  10.3308
    10.9884  11.6021  13.0170

          k = 0.0000 0.2500 0.3750 (  1556 PWs)   bands (ev):

   -39.9581 -18.6891 -18.6228 -18.5327   3.5650   6.7244   8.6110  10.1103
    10.7642  11.5816  13.0663

          k = 0.0000 0.2500-0.5000 (  1556 PWs)   bands (ev):

   -39.9561 -18.7133 -18.6197 -18.5305   4.2205   5.8716   8.9233   9.8735
    10.6373  11.6368  13.1855

          k = 0.0000 0.3750 0.3750 (  1560 PWs)   bands (ev):

   -39.9533 -18.6819 -18.6791 -18.5274   4.2090   7.1754   7.7785   9.7800
    10.9609  11.2082  13.0828

          k = 0.0000 0.3750-0.5000 (  1570 PWs)   bands (ev):

   -39.9513 -18.7042 -18.6769 -18.5252   4.6069   6.8419   8.0291   9.3859
    10.9195  11.2096  13.1332

          k = 0.0000-0.5000-0.5000 (  1596 PWs)   bands (ev):

   -39.9493 -18.7005 -18.7005 -18.5231   4.8177   7.6338   7.6338   8.7027
    11.0522  11.0522  13.1577

          k = 0.1250 0.1250 0.1250 (  1554 PWs)   bands (ev):

   -39.9708 -18.5770 -18.5728 -18.5728   1.7216   8.7360   8.7360  10.6843
    11.4751  11.4751  13.7474

          k = 0.1250 0.1250 0.2500 (  1554 PWs)   bands (ev):

   -39.9658 -18.6346 -18.5693 -18.5669   2.3306   7.8684   8.9885  10.3979
    10.7565  11.6307  13.1380

          k = 0.1250 0.1250 0.3750 (  1547 PWs)   bands (ev):

   -39.9609 -18.6942 -18.5633 -18.5610   3.2604   6.4251   9.3130  10.2172
    10.4658  11.7793  13.1160

          k = 0.1250 0.1250-0.5000 (  1548 PWs)   bands (ev):

   -39.9589 -18.7187 -18.5608 -18.5586   4.0378   5.4334   9.5220   9.9597
    10.4829  11.8377  13.2781

          k = 0.1250 0.2500 0.2500 (  1560 PWs)   bands (ev):

   -39.9610 -18.6302 -18.6246 -18.5622   2.8914   8.1896   8.1920  10.2526
    10.6097  11.2711  13.4510

          k = 0.1250 0.2500 0.3750 (  1555 PWs)   bands (ev):

   -39.9561 -18.6858 -18.6200 -18.5564   3.7247   6.8755   8.5540  10.2128
    10.5686  11.2983  13.2568

          k = 0.1250 0.2500-0.5000 (  1558 PWs)   bands (ev):

   -39.9541 -18.7098 -18.6171 -18.5540   4.3526   6.0508   8.7286  10.0365
    10.7351  11.3033  13.2711

          k = 0.1250 0.3750 0.3750 (  1569 PWs)   bands (ev):

   -39.9513 -18.6787 -18.6760 -18.5507   4.3664   7.3117   7.7106   9.8557
    10.8574  11.2114  13.2342

          k = 0.1250 0.3750-0.5000 (  1568 PWs)   bands (ev):

   -39.9493 -18.7009 -18.6739 -18.5484   4.7694   6.9204   7.9105   9.5540
    11.0516  11.1877  13.2022

          k = 0.1250-0.5000-0.5000 (  1556 PWs)   bands (ev):

   -39.9474 -18.6972 -18.6972 -18.5459   5.0026   7.5280   7.5280   9.0210
    11.2150  11.2150  13.1676

          k = 0.2500 0.2500 0.2500 (  1550 PWs)   bands (ev):

   -39.9562 -18.6253 -18.6178 -18.6178   3.4130   8.2265   8.2265   9.6130
    10.8085  10.8085  13.9771

          k = 0.2500 0.2500 0.3750 (  1553 PWs)   bands (ev):

   -39.9514 -18.6778 -18.6154 -18.6112   4.1764   7.2312   8.2389  10.1162
    10.5397  11.0642  13.4447

          k = 0.2500 0.2500-0.5000 (  1548 PWs)   bands (ev):

   -39.9494 -18.7013 -18.6125 -18.6084   4.7248   6.5150   8.2352  10.4646
    10.7226  10.9835  13.2973

          k = 0.2500 0.3750 0.3750 (  1561 PWs)   bands (ev):

   -39.9466 -18.6710 -18.6686 -18.6066   4.8149   7.5252   7.5463  10.0481
    10.8455  11.2541  12.6420

          k = 0.2500 0.3750-0.5000 (  1546 PWs)   bands (ev):

   -39.9446 -18.6929 -18.6664 -18.6038   5.2348   7.0435   7.6335  10.1358
    11.1979  11.2969  12.2382

          k = 0.2500-0.5000-0.5000 (  1568 PWs)   bands (ev):

   -39.9427 -18.6895 -18.6895 -18.6012   5.5433   7.2927   7.2927   9.9267
    11.6319  11.6320  11.6600

          k = 0.3750 0.3750 0.3750 (  1550 PWs)   bands (ev):

   -39.9419 -18.6642 -18.6611 -18.6611   5.4586   7.3834   7.3834  10.3247
    11.3342  11.3342  11.5523

          k = 0.3750 0.3750-0.5000 (  1546 PWs)   bands (ev):

   -39.9399 -18.6849 -18.6599 -18.6579   5.9029   7.0823   7.3167  10.5224
    11.0643  11.3763  11.9658

          k = 0.3750-0.5000-0.5000 (  1568 PWs)   bands (ev):

   -39.9380 -18.6817 -18.6817 -18.6559   6.3690   7.0789   7.0789   9.9326
    11.2544  12.1261  12.1276

          k =-0.5000-0.5000-0.5000 (  1568 PWs)   bands (ev):

   -39.9360 -18.6784 -18.6784 -18.6784   6.9952   6.9952   6.9952   8.9903
    12.3777  12.3778  13.2247

     the Fermi energy is     9.5455 ev

!    total energy              =    -196.52517689 Ry
     total all-electron energy =     -2014.156740 Ry
     estimated scf accuracy    <          6.1E-09 Ry
     smearing contrib. (-TS)   =      -0.00035597 Ry
     internal energy E=F+TS    =    -196.52482093 Ry

     The total energy is F=E-TS. E is the sum of the following terms:
     one-electron contribution =     -39.84098725 Ry
     hartree contribution      =      24.39503355 Ry
     xc contribution           =     -20.10787039 Ry
     ewald contribution        =     -66.03387086 Ry
     one-center paw contrib.   =     -94.93712598 Ry

     convergence has been achieved in   7 iterations

     Writing all to output data dir ./tmp_kpt_8/scal_kpt_8.save/ :
     XML data file, charge density, pseudopotentials, collected wavefunctions

     init_run     :      0.65s CPU      0.72s WALL (       1 calls)
     electrons    :      4.56s CPU      5.45s WALL (       1 calls)

     Called by init_run:
     wfcinit      :      0.21s CPU      0.22s WALL (       1 calls)
     potinit      :      0.15s CPU      0.18s WALL (       1 calls)
     hinit0       :      0.18s CPU      0.19s WALL (       1 calls)

     Called by electrons:
     c_bands      :      2.89s CPU      3.06s WALL (       8 calls)
     sum_band     :      0.67s CPU      1.05s WALL (       8 calls)
     v_of_rho     :      0.06s CPU      0.07s WALL (       8 calls)
     newd         :      0.37s CPU      0.61s WALL (       8 calls)
     PAW_pot      :      0.70s CPU      0.85s WALL (       8 calls)
     mix_rho      :      0.00s CPU      0.00s WALL (       8 calls)

     Called by c_bands:
     init_us_2    :      0.07s CPU      0.08s WALL (     595 calls)
     cegterg      :      2.76s CPU      2.92s WALL (     280 calls)

     Called by *egterg:
     cdiaghg      :      0.11s CPU      0.12s WALL (    1739 calls)
     h_psi        :      1.83s CPU      1.94s WALL (    1809 calls)
     s_psi        :      0.26s CPU      0.28s WALL (    1809 calls)
     g_psi        :      0.01s CPU      0.01s WALL (    1494 calls)

     Called by h_psi:
     h_psi:calbec :      0.27s CPU      0.29s WALL (    1809 calls)
     vloc_psi     :      1.28s CPU      1.35s WALL (    1809 calls)
                                        0.00s GPU  (    1809 calls)
     add_vuspsi   :      0.26s CPU      0.28s WALL (    1809 calls)

     General routines
     calbec       :      0.34s CPU      0.36s WALL (    2089 calls)
     fft          :      0.07s CPU      0.07s WALL (     103 calls)
     ffts         :      0.05s CPU      0.05s WALL (      16 calls)
     fftw         :      1.29s CPU      1.37s WALL (   24104 calls)
     interpolate  :      0.05s CPU      0.05s WALL (       8 calls)

     Parallel routines

     PWSCF        :      5.30s CPU      6.28s WALL


   This run was terminated on:  20: 4:58   8Sep2026            

=------------------------------------------------------------------------------=
   JOB DONE.
=------------------------------------------------------------------------------=
