
     Program PWSCF v.7.5 starts on  8Sep2026 at 20: 4:43 

     This program is part of the open-source Quantum ESPRESSO suite
     for quantum simulation of materials; please cite
         "P. Giannozzi et al., J. Phys.:Condens. Matter 21 395502 (2009);
         "P. Giannozzi et al., J. Phys.:Condens. Matter 29 465901 (2017);
         "P. Giannozzi et al., J. Chem. Phys. 152 154105 (2020);
          URL http://www.quantum-espresso.org", 
     in publications or presentations arising from this work. More details at
     http://www.quantum-espresso.org/quote

     Parallel version (MPI & OpenMP), running on       2 processor cores
     Number of MPI processes:                 2
     Threads/MPI process:                     1

     MPI processes distributed on     1 nodes
     14823 MiB available memory on the printing compute node when the environment starts

     Waiting for input...
     Reading input from standard input
Warning: card &CELL ignored

     Current dimensions of program PWSCF are:
     Max number of different atomic species (ntypx) = 10
     Max number of k-points (npk) =  40000
     Max angular momentum in pseudopotentials (lmaxx) =  4
     file Sc.pbe-spn-kjpaw_psl.1.0.0.UPF: wavefunction(s)  3S 3P 3D renormalized
     file Al.pbe-n-kjpaw_psl.1.0.0.UPF: wavefunction(s)  3S 3P renormalized

     R & G space division:  proc/nbgrp/npool/nimage =       2
     Subspace diagonalization in iterative solution of the eigenvalue problem:
     a serial algorithm will be used


     Parallelization info
     --------------------
     sticks:   dense  smooth     PW     G-vecs:    dense   smooth      PW
     Min         652     328     98                17636     6266    1054
     Max         653     329     99                17637     6267    1055
     Sum        1305     657    197                35273    12533    2109

     Using Slab Decomposition



     bravais-lattice index     =            1
     lattice parameter (alat)  =       6.3873  a.u.
     unit-cell volume          =     260.5834 (a.u.)^3
     number of atoms/cell      =            2
     number of atomic types    =            2
     number of electrons       =        14.00
     number of Kohn-Sham states=           11
     kinetic-energy cutoff     =      50.0000  Ry
     charge density cutoff     =     400.0000  Ry
     scf convergence threshold =      1.0E-07
     mixing beta               =       0.7000
     number of iterations used =            8  plain     mixing
     Exchange-correlation= SLA  PW   PBX  PBC
                           (   1   4   3   4   0   0   0)

     celldm(1)=   6.387274  celldm(2)=   0.000000  celldm(3)=   0.000000
     celldm(4)=   0.000000  celldm(5)=   0.000000  celldm(6)=   0.000000

     crystal axes: (cart. coord. in units of alat)
               a(1) = (   1.000000   0.000000   0.000000 )  
               a(2) = (   0.000000   1.000000   0.000000 )  
               a(3) = (   0.000000   0.000000   1.000000 )  

     reciprocal axes: (cart. coord. in units 2 pi/alat)
               b(1) = (  1.000000  0.000000  0.000000 )  
               b(2) = (  0.000000  1.000000  0.000000 )  
               b(3) = (  0.000000  0.000000  1.000000 )  


     PseudoPot. # 1 for Sc read from file:
     /home/jdmin2003/qe-work/pseudo/Sc.pbe-spn-kjpaw_psl.1.0.0.UPF
     MD5 check sum: d5ac433e587a0148d610ca85a1be5559
     Pseudo is Projector augmented-wave + core cor, Zval = 11.0
     Generated using &quot;atomic&quot; code by A. Dal Corso  v.6.2.2
     Shape of augmentation charge: PSQ
     Using radial grid of 1173 points,  6 beta functions with: 
                l(1) =   0
                l(2) =   0
                l(3) =   1
                l(4) =   1
                l(5) =   2
                l(6) =   2
     Q(r) pseudized with 0 coefficients 


     PseudoPot. # 2 for Al read from file:
     /home/jdmin2003/qe-work/pseudo/Al.pbe-n-kjpaw_psl.1.0.0.UPF
     MD5 check sum: 502b6b27b9c6270cab5dd1084b96fa6d
     Pseudo is Projector augmented-wave + core cor, Zval =  3.0
     Generated using &quot;atomic&quot; code by A. Dal Corso  v.6.3
     Shape of augmentation charge: PSQ
     Using radial grid of 1135 points,  6 beta functions with: 
                l(1) =   0
                l(2) =   0
                l(3) =   1
                l(4) =   1
                l(5) =   2
                l(6) =   2
     Q(r) pseudized with 0 coefficients 


     atomic species   valence    mass     pseudopotential
     Sc               11.00    44.95600     Sc( 1.00)
     Al                3.00    26.98200     Al( 1.00)

     48 Sym. Ops., with inversion, found



   Cartesian axes

     site n.     atom                  positions (alat units)
         1        Sc     tau(   1) = (   0.0000000   0.0000000   0.0000000  )
         2        Al     tau(   2) = (   0.5000000   0.5000000   0.5000000  )

     number of k points=    10  Marzari-Vanderbilt smearing, width (Ry)=  0.0200
                       cart. coord. in units 2pi/alat
        k(    1) = (   0.0000000   0.0000000   0.0000000), wk =   0.0312500
        k(    2) = (   0.0000000   0.0000000   0.2500000), wk =   0.1875000
        k(    3) = (   0.0000000   0.0000000  -0.5000000), wk =   0.0937500
        k(    4) = (   0.0000000   0.2500000   0.2500000), wk =   0.3750000
        k(    5) = (   0.0000000   0.2500000  -0.5000000), wk =   0.3750000
        k(    6) = (   0.0000000  -0.5000000  -0.5000000), wk =   0.0937500
        k(    7) = (   0.2500000   0.2500000   0.2500000), wk =   0.2500000
        k(    8) = (   0.2500000   0.2500000  -0.5000000), wk =   0.3750000
        k(    9) = (   0.2500000  -0.5000000  -0.5000000), wk =   0.1875000
        k(   10) = (  -0.5000000  -0.5000000  -0.5000000), wk =   0.0312500

     Dense  grid:    35273 G-vectors     FFT dimensions: (  45,  45,  45)

     Smooth grid:    12533 G-vectors     FFT dimensions: (  30,  30,  30)

     Estimated max dynamical RAM per process >      66.38 MB

     Estimated total dynamical RAM >     132.76 MB

     Check: negative core charge=   -0.000007

     Initial potential from superposition of free atoms

     starting charge      13.9951, renormalised to      14.0000
     Starting wfcs are   14 randomized atomic wfcs
     Checking if some PAW data can be deallocated... 

     total cpu time spent up to now is        0.6 secs

     per-process dynamical memory:    24.3 Mb

     Self-consistent Calculation

     iteration #  1     ecut=    50.00 Ry     beta= 0.70
     Davidson diagonalization with overlap
     ethr =  1.00E-02,  avg # of iterations =  2.2

     Threshold (ethr) on eigenvalues was too large:
     Diagonalizing with lowered threshold

     Davidson diagonalization with overlap
     ethr =  5.90E-05,  avg # of iterations =  7.8

     total cpu time spent up to now is        1.2 secs

     total energy              =    -196.52182263 Ry
     estimated scf accuracy    <       0.02118258 Ry

     iteration #  2     ecut=    50.00 Ry     beta= 0.70
     Davidson diagonalization with overlap
     ethr =  1.51E-04,  avg # of iterations =  4.4

     total cpu time spent up to now is        1.6 secs

     total energy              =    -196.52440981 Ry
     estimated scf accuracy    <       0.00912771 Ry

     iteration #  3     ecut=    50.00 Ry     beta= 0.70
     Davidson diagonalization with overlap
     ethr =  6.52E-05,  avg # of iterations =  3.5

     total cpu time spent up to now is        1.9 secs

     total energy              =    -196.52705167 Ry
     estimated scf accuracy    <       0.00049042 Ry

     iteration #  4     ecut=    50.00 Ry     beta= 0.70
     Davidson diagonalization with overlap
     c_bands:  1 eigenvalues not converged
     ethr =  3.50E-06,  avg # of iterations =  7.1

     total cpu time spent up to now is        2.3 secs

     total energy              =    -196.52731809 Ry
     estimated scf accuracy    <       0.00000743 Ry

     iteration #  5     ecut=    50.00 Ry     beta= 0.70
     Davidson diagonalization with overlap
     c_bands:  1 eigenvalues not converged
     ethr =  5.30E-08,  avg # of iterations =  8.2

     total cpu time spent up to now is        2.7 secs

     total energy              =    -196.52733316 Ry
     estimated scf accuracy    <       0.00000159 Ry

     iteration #  6     ecut=    50.00 Ry     beta= 0.70
     Davidson diagonalization with overlap
     ethr =  1.14E-08,  avg # of iterations =  4.4

     total cpu time spent up to now is        3.1 secs

     total energy              =    -196.52733374 Ry
     estimated scf accuracy    <       0.00000060 Ry

     iteration #  7     ecut=    50.00 Ry     beta= 0.70
     Davidson diagonalization with overlap
     ethr =  4.32E-09,  avg # of iterations =  3.7

     total cpu time spent up to now is        3.5 secs

     End of self-consistent calculation

          k = 0.0000 0.0000 0.0000 (  1551 PWs)   bands (ev):

   -40.1194 -18.6897 -18.6897 -18.6897   1.1004   8.8211   8.8211  12.0949
    12.0949  12.0950  13.2190

          k = 0.0000 0.0000 0.2500 (  1554 PWs)   bands (ev):

   -40.1124 -18.7757 -18.6821 -18.6821   1.9604   7.5996   9.2204  10.8612
    10.8613  12.2023  12.4159

          k = 0.0000 0.0000-0.5000 (  1542 PWs)   bands (ev):

   -40.1055 -18.8603 -18.6743 -18.6743   3.8547   4.9830   9.7283  10.2389
    10.2389  12.3145  13.1688

          k = 0.0000 0.2500 0.2500 (  1566 PWs)   bands (ev):

   -40.1056 -18.7683 -18.7628 -18.6746   2.7347   8.0176   8.1619  10.2590
    10.9189  11.5022  12.9513

          k = 0.0000 0.2500-0.5000 (  1556 PWs)   bands (ev):

   -40.0988 -18.8477 -18.7552 -18.6670   4.2525   5.8744   8.9088   9.8088
    10.5631  11.5374  13.0822

          k = 0.0000-0.5000-0.5000 (  1596 PWs)   bands (ev):

   -40.0921 -18.8351 -18.8351 -18.6597   4.8407   7.6521   7.6521   8.6585
    10.9613  10.9613  13.0425

          k = 0.2500 0.2500 0.2500 (  1550 PWs)   bands (ev):

   -40.0989 -18.7606 -18.7534 -18.7534   3.4390   8.2136   8.2136   9.5897
    10.7277  10.7277  13.9287

          k = 0.2500 0.2500-0.5000 (  1548 PWs)   bands (ev):

   -40.0921 -18.8359 -18.7480 -18.7441   4.7534   6.5189   8.2128  10.3965
    10.6504  10.9505  13.2941

          k = 0.2500-0.5000-0.5000 (  1568 PWs)   bands (ev):

   -40.0855 -18.8242 -18.8242 -18.7369   5.5614   7.2925   7.2925   9.8815
    11.5771  11.5774  11.6861

          k =-0.5000-0.5000-0.5000 (  1568 PWs)   bands (ev):

   -40.0789 -18.8134 -18.8134 -18.8134   6.9838   6.9838   6.9838   9.0605
    12.3653  12.3653  12.3675

     the Fermi energy is     9.2973 ev

!    total energy              =    -196.52733384 Ry
     total all-electron energy =     -2014.158897 Ry
     estimated scf accuracy    <       0.00000002 Ry
     smearing contrib. (-TS)   =       0.00088258 Ry
     internal energy E=F+TS    =    -196.52821642 Ry

     The total energy is F=E-TS. E is the sum of the following terms:
     one-electron contribution =     -39.76117374 Ry
     hartree contribution      =      24.31196575 Ry
     xc contribution           =     -20.10416203 Ry
     ewald contribution        =     -66.03387086 Ry
     one-center paw contrib.   =     -94.94097553 Ry

     convergence has been achieved in   7 iterations

     Writing all to output data dir ./tmp_kpt_4/scal_kpt_4.save/ :
     XML data file, charge density, pseudopotentials, collected wavefunctions

     init_run     :      0.46s CPU      0.52s WALL (       1 calls)
     electrons    :      2.14s CPU      2.85s WALL (       1 calls)

     Called by init_run:
     wfcinit      :      0.03s CPU      0.03s WALL (       1 calls)
     potinit      :      0.16s CPU      0.18s WALL (       1 calls)
     hinit0       :      0.18s CPU      0.18s WALL (       1 calls)

     Called by electrons:
     c_bands      :      0.70s CPU      0.73s WALL (       8 calls)
     sum_band     :      0.46s CPU      0.78s WALL (       8 calls)
     v_of_rho     :      0.07s CPU      0.07s WALL (       8 calls)
     newd         :      0.34s CPU      0.60s WALL (       8 calls)
     PAW_pot      :      0.70s CPU      0.85s WALL (       8 calls)
     mix_rho      :      0.00s CPU      0.00s WALL (       8 calls)

     Called by c_bands:
     init_us_2    :      0.02s CPU      0.02s WALL (     170 calls)
     cegterg      :      0.67s CPU      0.70s WALL (      80 calls)

     Called by *egterg:
     cdiaghg      :      0.03s CPU      0.03s WALL (     483 calls)
     h_psi        :      0.43s CPU      0.45s WALL (     503 calls)
     s_psi        :      0.06s CPU      0.06s WALL (     503 calls)
     g_psi        :      0.00s CPU      0.00s WALL (     413 calls)

     Called by h_psi:
     h_psi:calbec :      0.06s CPU      0.07s WALL (     503 calls)
     vloc_psi     :      0.30s CPU      0.32s WALL (     503 calls)
                                        0.00s GPU  (     503 calls)
     add_vuspsi   :      0.06s CPU      0.06s WALL (     503 calls)

     General routines
     calbec       :      0.08s CPU      0.09s WALL (     583 calls)
     fft          :      0.07s CPU      0.07s WALL (     103 calls)
     ffts         :      0.05s CPU      0.05s WALL (      16 calls)
     fftw         :      0.31s CPU      0.32s WALL (    6716 calls)
     interpolate  :      0.05s CPU      0.05s WALL (       8 calls)

     Parallel routines

     PWSCF        :      2.68s CPU      3.47s WALL


   This run was terminated on:  20: 4:46   8Sep2026            

=------------------------------------------------------------------------------=
   JOB DONE.
=------------------------------------------------------------------------------=
