
     Program PWSCF v.7.5 starts on  8Sep2026 at 20: 4:59 

     This program is part of the open-source Quantum ESPRESSO suite
     for quantum simulation of materials; please cite
         "P. Giannozzi et al., J. Phys.:Condens. Matter 21 395502 (2009);
         "P. Giannozzi et al., J. Phys.:Condens. Matter 29 465901 (2017);
         "P. Giannozzi et al., J. Chem. Phys. 152 154105 (2020);
          URL http://www.quantum-espresso.org", 
     in publications or presentations arising from this work. More details at
     http://www.quantum-espresso.org/quote

     Parallel version (MPI & OpenMP), running on       2 processor cores
     Number of MPI processes:                 2
     Threads/MPI process:                     1

     MPI processes distributed on     1 nodes
     14638 MiB available memory on the printing compute node when the environment starts

     Waiting for input...
     Reading input from standard input
Warning: card &CELL ignored

     Current dimensions of program PWSCF are:
     Max number of different atomic species (ntypx) = 10
     Max number of k-points (npk) =  40000
     Max angular momentum in pseudopotentials (lmaxx) =  4
     file Sc.pbe-spn-kjpaw_psl.1.0.0.UPF: wavefunction(s)  3S 3P 3D renormalized
     file Al.pbe-n-kjpaw_psl.1.0.0.UPF: wavefunction(s)  3S 3P renormalized

     R & G space division:  proc/nbgrp/npool/nimage =       2
     Subspace diagonalization in iterative solution of the eigenvalue problem:
     a serial algorithm will be used


     Parallelization info
     --------------------
     sticks:   dense  smooth     PW     G-vecs:    dense   smooth      PW
     Min         652     328     98                17636     6266    1054
     Max         653     329     99                17637     6267    1055
     Sum        1305     657    197                35273    12533    2109

     Using Slab Decomposition



     bravais-lattice index     =            1
     lattice parameter (alat)  =       6.3873  a.u.
     unit-cell volume          =     260.5834 (a.u.)^3
     number of atoms/cell      =            2
     number of atomic types    =            2
     number of electrons       =        14.00
     number of Kohn-Sham states=           11
     kinetic-energy cutoff     =      50.0000  Ry
     charge density cutoff     =     400.0000  Ry
     scf convergence threshold =      1.0E-07
     mixing beta               =       0.7000
     number of iterations used =            8  plain     mixing
     Exchange-correlation= SLA  PW   PBX  PBC
                           (   1   4   3   4   0   0   0)

     celldm(1)=   6.387274  celldm(2)=   0.000000  celldm(3)=   0.000000
     celldm(4)=   0.000000  celldm(5)=   0.000000  celldm(6)=   0.000000

     crystal axes: (cart. coord. in units of alat)
               a(1) = (   1.000000   0.000000   0.000000 )  
               a(2) = (   0.000000   1.000000   0.000000 )  
               a(3) = (   0.000000   0.000000   1.000000 )  

     reciprocal axes: (cart. coord. in units 2 pi/alat)
               b(1) = (  1.000000  0.000000  0.000000 )  
               b(2) = (  0.000000  1.000000  0.000000 )  
               b(3) = (  0.000000  0.000000  1.000000 )  


     PseudoPot. # 1 for Sc read from file:
     /home/jdmin2003/qe-work/pseudo/Sc.pbe-spn-kjpaw_psl.1.0.0.UPF
     MD5 check sum: d5ac433e587a0148d610ca85a1be5559
     Pseudo is Projector augmented-wave + core cor, Zval = 11.0
     Generated using &quot;atomic&quot; code by A. Dal Corso  v.6.2.2
     Shape of augmentation charge: PSQ
     Using radial grid of 1173 points,  6 beta functions with: 
                l(1) =   0
                l(2) =   0
                l(3) =   1
                l(4) =   1
                l(5) =   2
                l(6) =   2
     Q(r) pseudized with 0 coefficients 


     PseudoPot. # 2 for Al read from file:
     /home/jdmin2003/qe-work/pseudo/Al.pbe-n-kjpaw_psl.1.0.0.UPF
     MD5 check sum: 502b6b27b9c6270cab5dd1084b96fa6d
     Pseudo is Projector augmented-wave + core cor, Zval =  3.0
     Generated using &quot;atomic&quot; code by A. Dal Corso  v.6.3
     Shape of augmentation charge: PSQ
     Using radial grid of 1135 points,  6 beta functions with: 
                l(1) =   0
                l(2) =   0
                l(3) =   1
                l(4) =   1
                l(5) =   2
                l(6) =   2
     Q(r) pseudized with 0 coefficients 


     atomic species   valence    mass     pseudopotential
     Sc               11.00    44.95600     Sc( 1.00)
     Al                3.00    26.98200     Al( 1.00)

     48 Sym. Ops., with inversion, found



   Cartesian axes

     site n.     atom                  positions (alat units)
         1        Sc     tau(   1) = (   0.0000000   0.0000000   0.0000000  )
         2        Al     tau(   2) = (   0.5000000   0.5000000   0.5000000  )

     number of k points=    56  Marzari-Vanderbilt smearing, width (Ry)=  0.0200
                       cart. coord. in units 2pi/alat
        k(    1) = (   0.0000000   0.0000000   0.0000000), wk =   0.0020000
        k(    2) = (   0.0000000   0.0000000   0.1000000), wk =   0.0120000
        k(    3) = (   0.0000000   0.0000000   0.2000000), wk =   0.0120000
        k(    4) = (   0.0000000   0.0000000   0.3000000), wk =   0.0120000
        k(    5) = (   0.0000000   0.0000000   0.4000000), wk =   0.0120000
        k(    6) = (   0.0000000   0.0000000  -0.5000000), wk =   0.0060000
        k(    7) = (   0.0000000   0.1000000   0.1000000), wk =   0.0240000
        k(    8) = (   0.0000000   0.1000000   0.2000000), wk =   0.0480000
        k(    9) = (   0.0000000   0.1000000   0.3000000), wk =   0.0480000
        k(   10) = (   0.0000000   0.1000000   0.4000000), wk =   0.0480000
        k(   11) = (   0.0000000   0.1000000  -0.5000000), wk =   0.0240000
        k(   12) = (   0.0000000   0.2000000   0.2000000), wk =   0.0240000
        k(   13) = (   0.0000000   0.2000000   0.3000000), wk =   0.0480000
        k(   14) = (   0.0000000   0.2000000   0.4000000), wk =   0.0480000
        k(   15) = (   0.0000000   0.2000000  -0.5000000), wk =   0.0240000
        k(   16) = (   0.0000000   0.3000000   0.3000000), wk =   0.0240000
        k(   17) = (   0.0000000   0.3000000   0.4000000), wk =   0.0480000
        k(   18) = (   0.0000000   0.3000000  -0.5000000), wk =   0.0240000
        k(   19) = (   0.0000000   0.4000000   0.4000000), wk =   0.0240000
        k(   20) = (   0.0000000   0.4000000  -0.5000000), wk =   0.0240000
        k(   21) = (   0.0000000  -0.5000000  -0.5000000), wk =   0.0060000
        k(   22) = (   0.1000000   0.1000000   0.1000000), wk =   0.0160000
        k(   23) = (   0.1000000   0.1000000   0.2000000), wk =   0.0480000
        k(   24) = (   0.1000000   0.1000000   0.3000000), wk =   0.0480000
        k(   25) = (   0.1000000   0.1000000   0.4000000), wk =   0.0480000
        k(   26) = (   0.1000000   0.1000000  -0.5000000), wk =   0.0240000
        k(   27) = (   0.1000000   0.2000000   0.2000000), wk =   0.0480000
        k(   28) = (   0.1000000   0.2000000   0.3000000), wk =   0.0960000
        k(   29) = (   0.1000000   0.2000000   0.4000000), wk =   0.0960000
        k(   30) = (   0.1000000   0.2000000  -0.5000000), wk =   0.0480000
        k(   31) = (   0.1000000   0.3000000   0.3000000), wk =   0.0480000
        k(   32) = (   0.1000000   0.3000000   0.4000000), wk =   0.0960000
        k(   33) = (   0.1000000   0.3000000  -0.5000000), wk =   0.0480000
        k(   34) = (   0.1000000   0.4000000   0.4000000), wk =   0.0480000
        k(   35) = (   0.1000000   0.4000000  -0.5000000), wk =   0.0480000
        k(   36) = (   0.1000000  -0.5000000  -0.5000000), wk =   0.0120000
        k(   37) = (   0.2000000   0.2000000   0.2000000), wk =   0.0160000
        k(   38) = (   0.2000000   0.2000000   0.3000000), wk =   0.0480000
        k(   39) = (   0.2000000   0.2000000   0.4000000), wk =   0.0480000
        k(   40) = (   0.2000000   0.2000000  -0.5000000), wk =   0.0240000
        k(   41) = (   0.2000000   0.3000000   0.3000000), wk =   0.0480000
        k(   42) = (   0.2000000   0.3000000   0.4000000), wk =   0.0960000
        k(   43) = (   0.2000000   0.3000000  -0.5000000), wk =   0.0480000
        k(   44) = (   0.2000000   0.4000000   0.4000000), wk =   0.0480000
        k(   45) = (   0.2000000   0.4000000  -0.5000000), wk =   0.0480000
        k(   46) = (   0.2000000  -0.5000000  -0.5000000), wk =   0.0120000
        k(   47) = (   0.3000000   0.3000000   0.3000000), wk =   0.0160000
        k(   48) = (   0.3000000   0.3000000   0.4000000), wk =   0.0480000
        k(   49) = (   0.3000000   0.3000000  -0.5000000), wk =   0.0240000
        k(   50) = (   0.3000000   0.4000000   0.4000000), wk =   0.0480000
        k(   51) = (   0.3000000   0.4000000  -0.5000000), wk =   0.0480000
        k(   52) = (   0.3000000  -0.5000000  -0.5000000), wk =   0.0120000
        k(   53) = (   0.4000000   0.4000000   0.4000000), wk =   0.0160000
        k(   54) = (   0.4000000   0.4000000  -0.5000000), wk =   0.0240000
        k(   55) = (   0.4000000  -0.5000000  -0.5000000), wk =   0.0120000
        k(   56) = (  -0.5000000  -0.5000000  -0.5000000), wk =   0.0020000

     Dense  grid:    35273 G-vectors     FFT dimensions: (  45,  45,  45)

     Smooth grid:    12533 G-vectors     FFT dimensions: (  30,  30,  30)

     Estimated max dynamical RAM per process >      72.39 MB

     Estimated total dynamical RAM >     144.77 MB

     Check: negative core charge=   -0.000007

     Initial potential from superposition of free atoms

     starting charge      13.9951, renormalised to      14.0000
     Starting wfcs are   14 randomized atomic wfcs
     Checking if some PAW data can be deallocated... 

     total cpu time spent up to now is        0.8 secs

     per-process dynamical memory:    30.7 Mb

     Self-consistent Calculation

     iteration #  1     ecut=    50.00 Ry     beta= 0.70
     Davidson diagonalization with overlap
     ethr =  1.00E-02,  avg # of iterations =  2.5

     Threshold (ethr) on eigenvalues was too large:
     Diagonalizing with lowered threshold

     Davidson diagonalization with overlap
     ethr =  3.66E-05,  avg # of iterations = 10.0

     total cpu time spent up to now is        2.6 secs

     total energy              =    -196.52148723 Ry
     estimated scf accuracy    <       0.01755593 Ry

     iteration #  2     ecut=    50.00 Ry     beta= 0.70
     Davidson diagonalization with overlap
     ethr =  1.25E-04,  avg # of iterations =  4.3

     total cpu time spent up to now is        3.4 secs

     total energy              =    -196.52364590 Ry
     estimated scf accuracy    <       0.00477029 Ry

     iteration #  3     ecut=    50.00 Ry     beta= 0.70
     Davidson diagonalization with overlap
     ethr =  3.41E-05,  avg # of iterations =  4.2

     total cpu time spent up to now is        4.2 secs

     total energy              =    -196.52509607 Ry
     estimated scf accuracy    <       0.00033134 Ry

     iteration #  4     ecut=    50.00 Ry     beta= 0.70
     Davidson diagonalization with overlap
     c_bands:  1 eigenvalues not converged
     ethr =  2.37E-06,  avg # of iterations =  7.1

     total cpu time spent up to now is        5.2 secs

     total energy              =    -196.52526178 Ry
     estimated scf accuracy    <       0.00000328 Ry

     iteration #  5     ecut=    50.00 Ry     beta= 0.70
     Davidson diagonalization with overlap
     c_bands:  1 eigenvalues not converged
     c_bands:  2 eigenvalues not converged
     ethr =  2.34E-08,  avg # of iterations =  7.9

     total cpu time spent up to now is        6.1 secs

     total energy              =    -196.52526870 Ry
     estimated scf accuracy    <       0.00000145 Ry

     iteration #  6     ecut=    50.00 Ry     beta= 0.70
     Davidson diagonalization with overlap
     c_bands:  1 eigenvalues not converged
     c_bands:  1 eigenvalues not converged
     ethr =  1.03E-08,  avg # of iterations =  6.4

     total cpu time spent up to now is        7.0 secs

     total energy              =    -196.52526912 Ry
     estimated scf accuracy    <       0.00000130 Ry

     iteration #  7     ecut=    50.00 Ry     beta= 0.70
     Davidson diagonalization with overlap
     ethr =  9.27E-09,  avg # of iterations =  2.4

     total cpu time spent up to now is        7.7 secs

     End of self-consistent calculation

          k = 0.0000 0.0000 0.0000 (  1551 PWs)   bands (ev):

   -39.9889 -18.5650 -18.5650 -18.5650   1.0783   8.8718   8.8718  12.1968
    12.1969  12.1969  13.1916

          k = 0.0000 0.0000 0.1000 (  1551 PWs)   bands (ev):

   -39.9876 -18.5817 -18.5635 -18.5635   1.2194   8.7176   8.9433  11.7742
    11.7742  12.2175  12.8158

          k = 0.0000 0.0000 0.2000 (  1562 PWs)   bands (ev):

   -39.9841 -18.6253 -18.5597 -18.5597   1.6344   8.1068   9.1436  11.1805
    11.1806  12.2722  12.4389

          k = 0.0000 0.0000 0.3000 (  1534 PWs)   bands (ev):

   -39.9798 -18.6784 -18.5548 -18.5548   2.2982   7.0221   9.4240  10.7037
    10.7037  12.3416  12.6088

          k = 0.0000 0.0000 0.4000 (  1550 PWs)   bands (ev):

   -39.9762 -18.7212 -18.5509 -18.5509   3.1532   5.7916   9.6871  10.4009
    10.4009  12.3992  13.0393

          k = 0.0000 0.0000-0.5000 (  1542 PWs)   bands (ev):

   -39.9749 -18.7374 -18.5494 -18.5494   3.8213   4.9817   9.7993  10.2973
    10.2973  12.4216  13.2647

          k = 0.0000 0.1000 0.1000 (  1554 PWs)   bands (ev):

   -39.9863 -18.5812 -18.5792 -18.5621   1.3585   8.7172   8.8804  11.3467
    11.6329  12.0771  13.1286

          k = 0.0000 0.1000 0.2000 (  1559 PWs)   bands (ev):

   -39.9828 -18.6235 -18.5760 -18.5582   1.7674   8.1858   9.0263  10.8331
    11.1853  12.0683  12.7462

          k = 0.0000 0.1000 0.3000 (  1548 PWs)   bands (ev):

   -39.9785 -18.6763 -18.5709 -18.5534   2.4201   7.1158   9.3095  10.4973
    10.7473  12.1434  12.7405

          k = 0.0000 0.1000 0.4000 (  1554 PWs)   bands (ev):

   -39.9750 -18.7188 -18.5668 -18.5496   3.2555   5.9057   9.6202  10.2098
    10.4571  12.2150  13.0639

          k = 0.0000 0.1000-0.5000 (  1558 PWs)   bands (ev):

   -39.9736 -18.7350 -18.5652 -18.5480   3.8896   5.1305   9.8417  10.0061
    10.3565  12.2437  13.2538

          k = 0.0000 0.2000 0.2000 (  1550 PWs)   bands (ev):

   -39.9793 -18.6212 -18.6160 -18.5544   2.1572   8.3615   8.4922  10.4648
    11.1150  11.7739  13.0312

          k = 0.0000 0.2000 0.3000 (  1553 PWs)   bands (ev):

   -39.9750 -18.6709 -18.6126 -18.5496   2.7745   7.3766   8.7448  10.3014
    10.8563  11.7343  12.9501

          k = 0.0000 0.2000 0.4000 (  1555 PWs)   bands (ev):

   -39.9716 -18.7127 -18.6079 -18.5458   3.5469   6.2368   9.1027  10.0748
    10.6122  11.8059  13.0939

          k = 0.0000 0.2000-0.5000 (  1552 PWs)   bands (ev):

   -39.9702 -18.7286 -18.6060 -18.5443   4.0857   5.5623   9.3176   9.8987
    10.5212  11.8427  13.2116

          k = 0.0000 0.3000 0.3000 (  1566 PWs)   bands (ev):

   -39.9708 -18.6665 -18.6614 -18.5449   3.3251   7.5724   7.9902  10.2026
    10.9279  11.4185  13.0202

          k = 0.0000 0.3000 0.4000 (  1570 PWs)   bands (ev):

   -39.9674 -18.7051 -18.6584 -18.5412   3.9788   6.7393   8.2950   9.9494
    10.8211  11.3958  13.0823

          k = 0.0000 0.3000-0.5000 (  1564 PWs)   bands (ev):

   -39.9661 -18.7206 -18.6562 -18.5397   4.3761   6.2327   8.5346   9.7523
    10.7481  11.4325  13.1432

          k = 0.0000 0.4000 0.4000 (  1562 PWs)   bands (ev):

   -39.9640 -18.6998 -18.6978 -18.5374   4.4421   7.1761   7.7283   9.5496
    10.9781  11.1456  13.0966

          k = 0.0000 0.4000-0.5000 (  1572 PWs)   bands (ev):

   -39.9627 -18.7142 -18.6965 -18.5360   4.6771   7.0521   7.8958   9.2175
    10.9570  11.1459  13.1281

          k = 0.0000-0.5000-0.5000 (  1596 PWs)   bands (ev):

   -39.9614 -18.7119 -18.7119 -18.5346   4.8191   7.6351   7.6351   8.6992
    11.0445  11.0445  13.1483

          k = 0.1000 0.1000 0.1000 (  1560 PWs)   bands (ev):

   -39.9849 -18.5806 -18.5776 -18.5776   1.4957   8.7823   8.7823  11.0389
    11.6683  11.6683  13.6071

          k = 0.1000 0.1000 0.2000 (  1557 PWs)   bands (ev):

   -39.9815 -18.6217 -18.5753 -18.5736   1.8985   8.2581   8.9660  10.6393
    11.0643  11.7755  13.0752

          k = 0.1000 0.1000 0.3000 (  1532 PWs)   bands (ev):

   -39.9772 -18.6742 -18.5701 -18.5684   2.5404   7.2084   9.2331  10.5138
    10.5466  11.9048  12.9065

          k = 0.1000 0.1000 0.4000 (  1553 PWs)   bands (ev):

   -39.9737 -18.7165 -18.5660 -18.5645   3.3568   6.0191   9.5289  10.1507
    10.4475  11.9994  13.1100

          k = 0.1000 0.1000-0.5000 (  1556 PWs)   bands (ev):

   -39.9723 -18.7326 -18.5645 -18.5629   3.9606   5.2750   9.7626   9.8971
    10.4133  12.0354  13.2625

          k = 0.1000 0.2000 0.2000 (  1544 PWs)   bands (ev):

   -39.9780 -18.6194 -18.6143 -18.5703   2.2827   8.3980   8.5580  10.3233
    10.9230  11.4574  13.4037

          k = 0.1000 0.2000 0.3000 (  1554 PWs)   bands (ev):

   -39.9737 -18.6689 -18.6109 -18.5653   2.8901   7.4645   8.7515  10.3306
    10.5883  11.4879  13.1692

          k = 0.1000 0.2000 0.4000 (  1556 PWs)   bands (ev):

   -39.9703 -18.7104 -18.6062 -18.5613   3.6463   6.3453   9.0233  10.1279
    10.5606  11.5657  13.1802

          k = 0.1000 0.2000-0.5000 (  1558 PWs)   bands (ev):

   -39.9690 -18.7262 -18.6044 -18.5598   4.1647   5.6917   9.1561   9.9893
    10.5810  11.5994  13.2567

          k = 0.1000 0.3000 0.3000 (  1565 PWs)   bands (ev):

   -39.9695 -18.6645 -18.6595 -18.5604   3.4333   7.6867   7.9793  10.2840
    10.6162  11.2832  13.2354

          k = 0.1000 0.3000 0.4000 (  1563 PWs)   bands (ev):

   -39.9661 -18.7029 -18.6564 -18.5565   4.0778   6.8325   8.2529  10.0139
    10.7617  11.2647  13.1926

          k = 0.1000 0.3000-0.5000 (  1560 PWs)   bands (ev):

   -39.9648 -18.7184 -18.6543 -18.5549   4.4682   6.3301   8.4335   9.8573
    10.8202  11.2712  13.2103

          k = 0.1000 0.4000 0.4000 (  1563 PWs)   bands (ev):

   -39.9627 -18.6977 -18.6958 -18.5525   4.5453   7.2464   7.6749   9.6144
    10.9692  11.1834  13.1635

          k = 0.1000 0.4000-0.5000 (  1568 PWs)   bands (ev):

   -39.9614 -18.7121 -18.6945 -18.5510   4.7855   7.0837   7.8214   9.3339
    11.0502  11.1732  13.1623

          k = 0.1000-0.5000-0.5000 (  1548 PWs)   bands (ev):

   -39.9601 -18.7096 -18.7096 -18.5494   4.9378   7.5652   7.5652   8.9039
    11.1509  11.1509  13.1546

          k = 0.2000 0.2000 0.2000 (  1547 PWs)   bands (ev):

   -39.9746 -18.6169 -18.6098 -18.6098   2.6494   8.4937   8.4937   9.8504
    10.9495  10.9495  14.0859

          k = 0.2000 0.2000 0.3000 (  1557 PWs)   bands (ev):

   -39.9703 -18.6636 -18.6084 -18.6043   3.2262   7.6887   8.6103   9.9956
    10.5361  11.1125  13.5508

          k = 0.2000 0.2000 0.4000 (  1558 PWs)   bands (ev):

   -39.9669 -18.7046 -18.6037 -18.5999   3.9323   6.6461   8.6985  10.2885
    10.4625  11.1740  13.3303

          k = 0.2000 0.2000-0.5000 (  1554 PWs)   bands (ev):

   -39.9656 -18.7201 -18.6019 -18.5982   4.3926   6.0563   8.7291  10.2102
    10.7502  11.1090  13.3144

          k = 0.2000 0.3000 0.3000 (  1560 PWs)   bands (ev):

   -39.9661 -18.6593 -18.6545 -18.6007   3.7478   7.9395   7.9435   9.9603
    10.5336  11.0447  13.8062

          k = 0.2000 0.3000 0.4000 (  1548 PWs)   bands (ev):

   -39.9627 -18.6973 -18.6515 -18.5962   4.3647   7.0600   8.1122  10.1477
    10.6226  11.1275  13.3886

          k = 0.2000 0.3000-0.5000 (  1548 PWs)   bands (ev):

   -39.9614 -18.7126 -18.6494 -18.5945   4.7350   6.5829   8.1664  10.1721
    10.9451  11.0009  13.3374

          k = 0.2000 0.4000 0.4000 (  1557 PWs)   bands (ev):

   -39.9594 -18.6922 -18.6905 -18.5919   4.8460   7.3792   7.5383   9.8532
    10.9769  11.2882  12.9364

          k = 0.2000 0.4000-0.5000 (  1566 PWs)   bands (ev):

   -39.9581 -18.7065 -18.6892 -18.5902   5.1032   7.1259   7.6358   9.7337
    11.2593  11.2799  12.6891

          k = 0.2000-0.5000-0.5000 (  1556 PWs)   bands (ev):

   -39.9568 -18.7041 -18.7041 -18.5885   5.2878   7.3927   7.3927   9.4977
    11.4383  11.4384  12.4016

          k = 0.3000 0.3000 0.3000 (  1556 PWs)   bands (ev):

   -39.9620 -18.6546 -18.6484 -18.6484   4.2344   7.8848   7.8848   9.6934
    10.8725  10.8725  13.1954

          k = 0.3000 0.3000 0.4000 (  1548 PWs)   bands (ev):

   -39.9586 -18.6903 -18.6471 -18.6434   4.8053   7.2821   7.8267  10.1514
    10.7939  11.1687  12.5811

          k = 0.3000 0.3000-0.5000 (  1554 PWs)   bands (ev):

   -39.9573 -18.7054 -18.6452 -18.6415   5.1420   6.8853   7.8021  10.5788
    10.7749  11.1852  12.3326

          k = 0.3000 0.4000 0.4000 (  1557 PWs)   bands (ev):

   -39.9553 -18.6855 -18.6839 -18.6402   5.3115   7.3753   7.4069  10.2903
    11.0472  11.4290  11.8590

          k = 0.3000 0.4000-0.5000 (  1554 PWs)   bands (ev):

   -39.9540 -18.6996 -18.6825 -18.6384   5.5992   7.1145   7.4128  10.4647
    11.1048  11.3957  11.8515

          k = 0.3000-0.5000-0.5000 (  1564 PWs)   bands (ev):

   -39.9527 -18.6974 -18.6974 -18.6365   5.8490   7.1965   7.1965  10.4187
    10.9346  11.8304  11.8308

          k = 0.4000 0.4000 0.4000 (  1553 PWs)   bands (ev):

   -39.9519 -18.6806 -18.6785 -18.6785   5.8553   7.2480   7.2480  10.3155
    11.3558  11.5512  11.5513

          k = 0.4000 0.4000-0.5000 (  1558 PWs)   bands (ev):

   -39.9507 -18.6940 -18.6778 -18.6764   6.1832   7.0707   7.2004  10.1022
    11.3670  11.5997  12.0769

          k = 0.4000-0.5000-0.5000 (  1560 PWs)   bands (ev):

   -39.9494 -18.6919 -18.6919 -18.6751   6.5464   7.0485   7.0485   9.6458
    11.5374  12.2074  13.2085

          k =-0.5000-0.5000-0.5000 (  1568 PWs)   bands (ev):

   -39.9481 -18.6898 -18.6898 -18.6898   6.9941   6.9941   6.9941   8.9952
    12.3768  12.3769  12.3785

     the Fermi energy is     9.5171 ev

!    total energy              =    -196.52526925 Ry
     total all-electron energy =     -2014.156833 Ry
     estimated scf accuracy    <       0.00000007 Ry
     smearing contrib. (-TS)   =       0.00029258 Ry
     internal energy E=F+TS    =    -196.52556183 Ry

     The total energy is F=E-TS. E is the sum of the following terms:
     one-electron contribution =     -39.83354759 Ry
     hartree contribution      =      24.38629101 Ry
     xc contribution           =     -20.10713435 Ry
     ewald contribution        =     -66.03387086 Ry
     one-center paw contrib.   =     -94.93730005 Ry

     convergence has been achieved in   7 iterations

     Writing all to output data dir ./tmp_kpt_10/scal_kpt_10.save/ :
     XML data file, charge density, pseudopotentials, collected wavefunctions

     init_run     :      0.61s CPU      0.67s WALL (       1 calls)
     electrons    :      6.05s CPU      6.90s WALL (       1 calls)

     Called by init_run:
     wfcinit      :      0.18s CPU      0.19s WALL (       1 calls)
     potinit      :      0.16s CPU      0.18s WALL (       1 calls)
     hinit0       :      0.18s CPU      0.18s WALL (       1 calls)

     Called by electrons:
     c_bands      :      4.19s CPU      4.39s WALL (       8 calls)
     sum_band     :      0.83s CPU      1.15s WALL (       8 calls)
     v_of_rho     :      0.06s CPU      0.07s WALL (       8 calls)
     newd         :      0.39s CPU      0.60s WALL (       8 calls)
     PAW_pot      :      0.71s CPU      0.86s WALL (       8 calls)
     mix_rho      :      0.00s CPU      0.00s WALL (       8 calls)

     Called by c_bands:
     init_us_2    :      0.10s CPU      0.10s WALL (     952 calls)
     cegterg      :      4.00s CPU      4.19s WALL (     448 calls)

     Called by *egterg:
     cdiaghg      :      0.19s CPU      0.19s WALL (    2904 calls)
     h_psi        :      2.56s CPU      2.70s WALL (    3016 calls)
     s_psi        :      0.36s CPU      0.38s WALL (    3016 calls)
     g_psi        :      0.02s CPU      0.02s WALL (    2512 calls)

     Called by h_psi:
     h_psi:calbec :      0.37s CPU      0.39s WALL (    3016 calls)
     vloc_psi     :      1.80s CPU      1.90s WALL (    3016 calls)
                                        0.00s GPU  (    3016 calls)
     add_vuspsi   :      0.36s CPU      0.38s WALL (    3016 calls)

     General routines
     calbec       :      0.47s CPU      0.50s WALL (    3464 calls)
     fft          :      0.07s CPU      0.07s WALL (     103 calls)
     ffts         :      0.05s CPU      0.05s WALL (      16 calls)
     fftw         :      1.83s CPU      1.93s WALL (   39330 calls)
     interpolate  :      0.05s CPU      0.05s WALL (       8 calls)

     Parallel routines

     PWSCF        :      6.74s CPU      7.69s WALL


   This run was terminated on:  20: 5: 6   8Sep2026            

=------------------------------------------------------------------------------=
   JOB DONE.
=------------------------------------------------------------------------------=
