
     Program PWSCF v.7.5 starts on  8Sep2026 at 20:34:49 

     This program is part of the open-source Quantum ESPRESSO suite
     for quantum simulation of materials; please cite
         "P. Giannozzi et al., J. Phys.:Condens. Matter 21 395502 (2009);
         "P. Giannozzi et al., J. Phys.:Condens. Matter 29 465901 (2017);
         "P. Giannozzi et al., J. Chem. Phys. 152 154105 (2020);
          URL http://www.quantum-espresso.org", 
     in publications or presentations arising from this work. More details at
     http://www.quantum-espresso.org/quote

     Parallel version (MPI & OpenMP), running on       2 processor cores
     Number of MPI processes:                 2
     Threads/MPI process:                     1

     MPI processes distributed on     1 nodes
     14764 MiB available memory on the printing compute node when the environment starts

     Waiting for input...
     Reading input from standard input

     Current dimensions of program PWSCF are:
     Max number of different atomic species (ntypx) = 10
     Max number of k-points (npk) =  40000
     Max angular momentum in pseudopotentials (lmaxx) =  4
     file Ag.pbe-n-kjpaw_psl.1.0.0.UPF: wavefunction(s)  5S 5P renormalized

     R & G space division:  proc/nbgrp/npool/nimage =       2
     Subspace diagonalization in iterative solution of the eigenvalue problem:
     a serial algorithm will be used


     Parallelization info
     --------------------
     sticks:   dense  smooth     PW     G-vecs:    dense   smooth      PW
     Min         372     183     60                 6684     2345     434
     Max         373     184     61                 6687     2348     435
     Sum         745     367    121                13371     4693     869

     Using Slab Decomposition



     bravais-lattice index     =            2
     lattice parameter (alat)  =       7.7290  a.u.
     unit-cell volume          =     115.4268 (a.u.)^3
     number of atoms/cell      =            1
     number of atomic types    =            1
     number of electrons       =        11.00
     number of Kohn-Sham states=           10
     kinetic-energy cutoff     =      45.0000  Ry
     charge density cutoff     =     360.0000  Ry
     scf convergence threshold =      1.0E-07
     mixing beta               =       0.7000
     number of iterations used =            8  plain     mixing
     Exchange-correlation= SLA  PW   PBX  PBC
                           (   1   4   3   4   0   0   0)

     celldm(1)=   7.728980  celldm(2)=   0.000000  celldm(3)=   0.000000
     celldm(4)=   0.000000  celldm(5)=   0.000000  celldm(6)=   0.000000

     crystal axes: (cart. coord. in units of alat)
               a(1) = (  -0.500000   0.000000   0.500000 )  
               a(2) = (   0.000000   0.500000   0.500000 )  
               a(3) = (  -0.500000   0.500000   0.000000 )  

     reciprocal axes: (cart. coord. in units 2 pi/alat)
               b(1) = ( -1.000000 -1.000000  1.000000 )  
               b(2) = (  1.000000  1.000000  1.000000 )  
               b(3) = ( -1.000000  1.000000 -1.000000 )  


     PseudoPot. # 1 for Ag read from file:
     /home/jdmin2003/qe-work/pseudo/Ag.pbe-n-kjpaw_psl.1.0.0.UPF
     MD5 check sum: 51099775af2a3182a6a1caffb86952a3
     Pseudo is Projector augmented-wave + core cor, Zval = 11.0
     Generated using &quot;atomic&quot; code by A. Dal Corso  v.6.2.2
     Shape of augmentation charge: PSQ
     Using radial grid of 1237 points,  6 beta functions with: 
                l(1) =   0
                l(2) =   0
                l(3) =   1
                l(4) =   1
                l(5) =   2
                l(6) =   2
     Q(r) pseudized with 0 coefficients 


     atomic species   valence    mass     pseudopotential
     Ag               11.00   107.86820     Ag( 1.00)

     48 Sym. Ops., with inversion, found



   Cartesian axes

     site n.     atom                  positions (alat units)
         1        Ag     tau(   1) = (   0.0000000   0.0000000   0.0000000  )

     number of k points=     8  Marzari-Vanderbilt smearing, width (Ry)=  0.0200
                       cart. coord. in units 2pi/alat
        k(    1) = (   0.0000000   0.0000000   0.0000000), wk =   0.0312500
        k(    2) = (  -0.2500000   0.2500000  -0.2500000), wk =   0.2500000
        k(    3) = (   0.5000000  -0.5000000   0.5000000), wk =   0.1250000
        k(    4) = (   0.0000000   0.5000000   0.0000000), wk =   0.1875000
        k(    5) = (   0.7500000  -0.2500000   0.7500000), wk =   0.7500000
        k(    6) = (   0.5000000   0.0000000   0.5000000), wk =   0.3750000
        k(    7) = (   0.0000000  -1.0000000   0.0000000), wk =   0.0937500
        k(    8) = (  -0.5000000  -1.0000000   0.0000000), wk =   0.1875000

     Dense  grid:    13371 G-vectors     FFT dimensions: (  36,  36,  36)

     Smooth grid:     4693 G-vectors     FFT dimensions: (  24,  24,  24)

     Estimated max dynamical RAM per process >      25.44 MB

     Estimated total dynamical RAM >      50.87 MB

     Initial potential from superposition of free atoms

     starting charge      10.9996, renormalised to      11.0000
     Starting wfcs are    9 randomized atomic wfcs +    1 random wfcs
     Checking if some PAW data can be deallocated... 

     total cpu time spent up to now is        0.4 secs

     per-process dynamical memory:    16.0 Mb

     Self-consistent Calculation

     iteration #  1     ecut=    45.00 Ry     beta= 0.70
     Davidson diagonalization with overlap
     ethr =  1.00E-02,  avg # of iterations =  4.5

     Threshold (ethr) on eigenvalues was too large:
     Diagonalizing with lowered threshold

     Davidson diagonalization with overlap
     ethr =  2.73E-05,  avg # of iterations =  6.1

     total cpu time spent up to now is        0.5 secs

     total energy              =    -355.28565694 Ry
     estimated scf accuracy    <       0.00353454 Ry

     iteration #  2     ecut=    45.00 Ry     beta= 0.70
     Davidson diagonalization with overlap
     ethr =  3.21E-05,  avg # of iterations =  2.0

     total cpu time spent up to now is        0.6 secs

     total energy              =    -355.28659924 Ry
     estimated scf accuracy    <       0.00224036 Ry

     iteration #  3     ecut=    45.00 Ry     beta= 0.70
     Davidson diagonalization with overlap
     ethr =  2.04E-05,  avg # of iterations =  2.0

     total cpu time spent up to now is        0.7 secs

     total energy              =    -355.28705237 Ry
     estimated scf accuracy    <       0.00001794 Ry

     iteration #  4     ecut=    45.00 Ry     beta= 0.70
     Davidson diagonalization with overlap
     ethr =  1.63E-07,  avg # of iterations =  2.9

     total cpu time spent up to now is        0.8 secs

     End of self-consistent calculation

          k = 0.0000 0.0000 0.0000 (   609 PWs)   bands (ev):

     5.0250   8.0219   8.0219   8.0219   9.0569   9.0569  29.7227  32.9889
    32.9889  37.2738

          k =-0.2500 0.2500-0.2500 (   580 PWs)   bands (ev):

     6.4123   8.2240   8.2240   8.2509   9.1833   9.1833  23.9830  30.1188
    32.5019  32.5020

          k = 0.5000-0.5000 0.5000 (   580 PWs)   bands (ev):

     6.4256   8.0016   8.0016   9.8496   9.8496  12.3917  16.3841  28.7616
    30.9913  30.9913

          k = 0.0000 0.5000 0.0000 (   576 PWs)   bands (ev):

     6.8226   7.2321   8.8948   8.8948   9.0135   9.4286  27.5392  27.5392
    28.6125  29.7687

          k = 0.7500-0.2500 0.7500 (   584 PWs)   bands (ev):

     6.8986   7.4628   8.4990   8.8597   9.9064  13.8060  18.9319  24.0407
    26.5401  29.6533

          k = 0.5000 0.0000 0.5000 (   590 PWs)   bands (ev):

     7.4631   7.6892   8.0805   8.6800   9.0689  12.2516  22.0786  22.1998
    30.3956  30.6413

          k = 0.0000-1.0000 0.0000 (   588 PWs)   bands (ev):

     6.3859   6.5264   9.8187  10.0556  10.0556  14.4128  19.5061  23.6296
    23.6296  29.8589

          k =-0.5000-1.0000 0.0000 (   604 PWs)   bands (ev):

     7.1360   7.7465   7.7465   9.0680  10.0563  18.7633  18.7633  19.8415
    20.9812  36.1631

     the Fermi energy is    13.5611 ev

!    total energy              =    -355.28705462 Ry
     total all-electron energy =    -10632.253108 Ry
     estimated scf accuracy    <       0.00000010 Ry
     smearing contrib. (-TS)   =      -0.00072672 Ry
     internal energy E=F+TS    =    -355.28632790 Ry

     The total energy is F=E-TS. E is the sum of the following terms:
     one-electron contribution =       1.46463122 Ry
     hartree contribution      =      14.69056815 Ry
     xc contribution           =     -22.34829489 Ry
     ewald contribution        =     -71.77768887 Ry
     one-center paw contrib.   =    -277.31554351 Ry

     convergence has been achieved in   4 iterations

     Writing all to output data dir ./tmp_k4/ag_k4.save/ :
     XML data file, charge density, pseudopotentials, collected wavefunctions

     init_run     :      0.29s CPU      0.33s WALL (       1 calls)
     electrons    :      0.43s CPU      0.44s WALL (       1 calls)

     Called by init_run:
     wfcinit      :      0.01s CPU      0.01s WALL (       1 calls)
     potinit      :      0.11s CPU      0.14s WALL (       1 calls)
     hinit0       :      0.16s CPU      0.16s WALL (       1 calls)

     Called by electrons:
     c_bands      :      0.11s CPU      0.12s WALL (       5 calls)
     sum_band     :      0.07s CPU      0.07s WALL (       5 calls)
     v_of_rho     :      0.02s CPU      0.02s WALL (       5 calls)
     newd         :      0.04s CPU      0.05s WALL (       5 calls)
     PAW_pot      :      0.24s CPU      0.26s WALL (       5 calls)
     mix_rho      :      0.00s CPU      0.00s WALL (       5 calls)

     Called by c_bands:
     init_us_2    :      0.00s CPU      0.00s WALL (      88 calls)
     cegterg      :      0.10s CPU      0.11s WALL (      40 calls)

     Called by *egterg:
     cdiaghg      :      0.01s CPU      0.01s WALL (     172 calls)
     h_psi        :      0.08s CPU      0.08s WALL (     188 calls)
     s_psi        :      0.00s CPU      0.01s WALL (     188 calls)
     g_psi        :      0.00s CPU      0.00s WALL (     140 calls)

     Called by h_psi:
     h_psi:calbec :      0.01s CPU      0.01s WALL (     188 calls)
     vloc_psi     :      0.07s CPU      0.07s WALL (     188 calls)
                                        0.00s GPU  (     188 calls)
     add_vuspsi   :      0.00s CPU      0.01s WALL (     188 calls)

     General routines
     calbec       :      0.01s CPU      0.01s WALL (     228 calls)
     fft          :      0.09s CPU      0.09s WALL (      64 calls)
     ffts         :      0.06s CPU      0.06s WALL (      10 calls)
     fftw         :      0.07s CPU      0.07s WALL (    2668 calls)
     interpolate  :      0.06s CPU      0.06s WALL (       5 calls)

     Parallel routines

     PWSCF        :      0.78s CPU      0.84s WALL


   This run was terminated on:  20:34:50   8Sep2026            

=------------------------------------------------------------------------------=
   JOB DONE.
=------------------------------------------------------------------------------=
