
     Program PWSCF v.7.5 starts on  8Sep2026 at 20:34:57 

     This program is part of the open-source Quantum ESPRESSO suite
     for quantum simulation of materials; please cite
         "P. Giannozzi et al., J. Phys.:Condens. Matter 21 395502 (2009);
         "P. Giannozzi et al., J. Phys.:Condens. Matter 29 465901 (2017);
         "P. Giannozzi et al., J. Chem. Phys. 152 154105 (2020);
          URL http://www.quantum-espresso.org", 
     in publications or presentations arising from this work. More details at
     http://www.quantum-espresso.org/quote

     Parallel version (MPI & OpenMP), running on       2 processor cores
     Number of MPI processes:                 2
     Threads/MPI process:                     1

     MPI processes distributed on     1 nodes
     14630 MiB available memory on the printing compute node when the environment starts

     Waiting for input...
     Reading input from standard input

     Current dimensions of program PWSCF are:
     Max number of different atomic species (ntypx) = 10
     Max number of k-points (npk) =  40000
     Max angular momentum in pseudopotentials (lmaxx) =  4
     file Ag.pbe-n-kjpaw_psl.1.0.0.UPF: wavefunction(s)  5S 5P renormalized

     R & G space division:  proc/nbgrp/npool/nimage =       2
     Subspace diagonalization in iterative solution of the eigenvalue problem:
     a serial algorithm will be used


     Parallelization info
     --------------------
     sticks:   dense  smooth     PW     G-vecs:    dense   smooth      PW
     Min         372     183     60                 6684     2345     469
     Max         373     184     61                 6687     2348     472
     Sum         745     367    121                13371     4693     941

     Using Slab Decomposition



     bravais-lattice index     =            2
     lattice parameter (alat)  =       7.7290  a.u.
     unit-cell volume          =     115.4268 (a.u.)^3
     number of atoms/cell      =            1
     number of atomic types    =            1
     number of electrons       =        11.00
     number of Kohn-Sham states=           10
     kinetic-energy cutoff     =      45.0000  Ry
     charge density cutoff     =     360.0000  Ry
     scf convergence threshold =      1.0E-07
     mixing beta               =       0.7000
     number of iterations used =            8  plain     mixing
     Exchange-correlation= SLA  PW   PBX  PBC
                           (   1   4   3   4   0   0   0)

     celldm(1)=   7.728980  celldm(2)=   0.000000  celldm(3)=   0.000000
     celldm(4)=   0.000000  celldm(5)=   0.000000  celldm(6)=   0.000000

     crystal axes: (cart. coord. in units of alat)
               a(1) = (  -0.500000   0.000000   0.500000 )  
               a(2) = (   0.000000   0.500000   0.500000 )  
               a(3) = (  -0.500000   0.500000   0.000000 )  

     reciprocal axes: (cart. coord. in units 2 pi/alat)
               b(1) = ( -1.000000 -1.000000  1.000000 )  
               b(2) = (  1.000000  1.000000  1.000000 )  
               b(3) = ( -1.000000  1.000000 -1.000000 )  


     PseudoPot. # 1 for Ag read from file:
     /home/jdmin2003/qe-work/pseudo/Ag.pbe-n-kjpaw_psl.1.0.0.UPF
     MD5 check sum: 51099775af2a3182a6a1caffb86952a3
     Pseudo is Projector augmented-wave + core cor, Zval = 11.0
     Generated using &quot;atomic&quot; code by A. Dal Corso  v.6.2.2
     Shape of augmentation charge: PSQ
     Using radial grid of 1237 points,  6 beta functions with: 
                l(1) =   0
                l(2) =   0
                l(3) =   1
                l(4) =   1
                l(5) =   2
                l(6) =   2
     Q(r) pseudized with 0 coefficients 


     atomic species   valence    mass     pseudopotential
     Ag               11.00   107.86820     Ag( 1.00)

     48 Sym. Ops., with inversion, found



   Cartesian axes

     site n.     atom                  positions (alat units)
         1        Ag     tau(   1) = (   0.0000000   0.0000000   0.0000000  )

     number of k points=   145  Marzari-Vanderbilt smearing, width (Ry)=  0.0200

     Number of k-points >= 100: set verbosity='high' to print them.

     Dense  grid:    13371 G-vectors     FFT dimensions: (  36,  36,  36)

     Smooth grid:     4693 G-vectors     FFT dimensions: (  24,  24,  24)

     Estimated max dynamical RAM per process >      31.58 MB

     Estimated total dynamical RAM >      63.17 MB

     Initial potential from superposition of free atoms

     starting charge      10.9996, renormalised to      11.0000
     Starting wfcs are    9 randomized atomic wfcs +    1 random wfcs
     Checking if some PAW data can be deallocated... 

     total cpu time spent up to now is        0.5 secs

     per-process dynamical memory:    21.0 Mb

     Self-consistent Calculation

     iteration #  1     ecut=    45.00 Ry     beta= 0.70
     Davidson diagonalization with overlap
     ethr =  1.00E-02,  avg # of iterations =  4.9

     Threshold (ethr) on eigenvalues was too large:
     Diagonalizing with lowered threshold

     Davidson diagonalization with overlap
     ethr =  2.50E-05,  avg # of iterations =  5.0

     total cpu time spent up to now is        2.3 secs

     total energy              =    -355.29869220 Ry
     estimated scf accuracy    <       0.00317988 Ry

     iteration #  2     ecut=    45.00 Ry     beta= 0.70
     Davidson diagonalization with overlap
     ethr =  2.89E-05,  avg # of iterations =  2.0

     total cpu time spent up to now is        3.0 secs

     total energy              =    -355.29954686 Ry
     estimated scf accuracy    <       0.00214926 Ry

     iteration #  3     ecut=    45.00 Ry     beta= 0.70
     Davidson diagonalization with overlap
     ethr =  1.95E-05,  avg # of iterations =  1.6

     total cpu time spent up to now is        3.4 secs

     total energy              =    -355.29997777 Ry
     estimated scf accuracy    <       0.00001628 Ry

     iteration #  4     ecut=    45.00 Ry     beta= 0.70
     Davidson diagonalization with overlap
     ethr =  1.48E-07,  avg # of iterations =  2.2

     total cpu time spent up to now is        3.9 secs

     total energy              =    -355.29998047 Ry
     estimated scf accuracy    <       0.00000013 Ry

     iteration #  5     ecut=    45.00 Ry     beta= 0.70
     Davidson diagonalization with overlap
     ethr =  1.19E-09,  avg # of iterations =  3.9

     total cpu time spent up to now is        4.5 secs

     End of self-consistent calculation

     Number of k-points >= 100: set verbosity='high' to print the bands.

     the Fermi energy is    12.7499 ev

!    total energy              =    -355.29998065 Ry
     total all-electron energy =    -10632.266034 Ry
     estimated scf accuracy    <          2.1E-09 Ry
     smearing contrib. (-TS)   =       0.00019489 Ry
     internal energy E=F+TS    =    -355.30017554 Ry

     The total energy is F=E-TS. E is the sum of the following terms:
     one-electron contribution =       1.43986501 Ry
     hartree contribution      =      14.70445070 Ry
     xc contribution           =     -22.35119973 Ry
     ewald contribution        =     -71.77768887 Ry
     one-center paw contrib.   =    -277.31560264 Ry

     convergence has been achieved in   5 iterations

     Writing all to output data dir ./tmp_k16/ag_k16.save/ :
     XML data file, charge density, pseudopotentials, collected wavefunctions

     init_run     :      0.42s CPU      0.46s WALL (       1 calls)
     electrons    :      3.70s CPU      4.03s WALL (       1 calls)

     Called by init_run:
     wfcinit      :      0.13s CPU      0.14s WALL (       1 calls)
     potinit      :      0.12s CPU      0.14s WALL (       1 calls)
     hinit0       :      0.15s CPU      0.16s WALL (       1 calls)

     Called by electrons:
     c_bands      :      2.91s CPU      3.15s WALL (       6 calls)
     sum_band     :      0.43s CPU      0.51s WALL (       6 calls)
     v_of_rho     :      0.02s CPU      0.03s WALL (       6 calls)
     newd         :      0.05s CPU      0.06s WALL (       6 calls)
     PAW_pot      :      0.34s CPU      0.35s WALL (       6 calls)
     mix_rho      :      0.00s CPU      0.00s WALL (       6 calls)

     Called by c_bands:
     init_us_2    :      0.06s CPU      0.07s WALL (    1885 calls)
     cegterg      :      2.81s CPU      3.04s WALL (     870 calls)

     Called by *egterg:
     cdiaghg      :      0.19s CPU      0.21s WALL (    3571 calls)
     h_psi        :      1.99s CPU      2.16s WALL (    3861 calls)
     s_psi        :      0.13s CPU      0.14s WALL (    3861 calls)
     g_psi        :      0.01s CPU      0.01s WALL (    2846 calls)

     Called by h_psi:
     h_psi:calbec :      0.14s CPU      0.15s WALL (    3861 calls)
     vloc_psi     :      1.70s CPU      1.84s WALL (    3861 calls)
                                        0.00s GPU  (    3861 calls)
     add_vuspsi   :      0.13s CPU      0.14s WALL (    3861 calls)

     General routines
     calbec       :      0.18s CPU      0.20s WALL (    4731 calls)
     fft          :      0.09s CPU      0.09s WALL (      77 calls)
     ffts         :      0.06s CPU      0.06s WALL (      12 calls)
     fftw         :      1.74s CPU      1.91s WALL (   58398 calls)
     interpolate  :      0.06s CPU      0.06s WALL (       6 calls)

     Parallel routines

     PWSCF        :      4.19s CPU      4.57s WALL


   This run was terminated on:  20:35: 1   8Sep2026            

=------------------------------------------------------------------------------=
   JOB DONE.
=------------------------------------------------------------------------------=
