
     Program PWSCF v.7.5 starts on  8Sep2026 at 20:34:53 

     This program is part of the open-source Quantum ESPRESSO suite
     for quantum simulation of materials; please cite
         "P. Giannozzi et al., J. Phys.:Condens. Matter 21 395502 (2009);
         "P. Giannozzi et al., J. Phys.:Condens. Matter 29 465901 (2017);
         "P. Giannozzi et al., J. Chem. Phys. 152 154105 (2020);
          URL http://www.quantum-espresso.org", 
     in publications or presentations arising from this work. More details at
     http://www.quantum-espresso.org/quote

     Parallel version (MPI & OpenMP), running on       2 processor cores
     Number of MPI processes:                 2
     Threads/MPI process:                     1

     MPI processes distributed on     1 nodes
     14639 MiB available memory on the printing compute node when the environment starts

     Waiting for input...
     Reading input from standard input

     Current dimensions of program PWSCF are:
     Max number of different atomic species (ntypx) = 10
     Max number of k-points (npk) =  40000
     Max angular momentum in pseudopotentials (lmaxx) =  4
     file Ag.pbe-n-kjpaw_psl.1.0.0.UPF: wavefunction(s)  5S 5P renormalized

     R & G space division:  proc/nbgrp/npool/nimage =       2
     Subspace diagonalization in iterative solution of the eigenvalue problem:
     a serial algorithm will be used


     Parallelization info
     --------------------
     sticks:   dense  smooth     PW     G-vecs:    dense   smooth      PW
     Min         372     183     60                 6684     2345     469
     Max         373     184     61                 6687     2348     472
     Sum         745     367    121                13371     4693     941

     Using Slab Decomposition



     bravais-lattice index     =            2
     lattice parameter (alat)  =       7.7290  a.u.
     unit-cell volume          =     115.4268 (a.u.)^3
     number of atoms/cell      =            1
     number of atomic types    =            1
     number of electrons       =        11.00
     number of Kohn-Sham states=           10
     kinetic-energy cutoff     =      45.0000  Ry
     charge density cutoff     =     360.0000  Ry
     scf convergence threshold =      1.0E-07
     mixing beta               =       0.7000
     number of iterations used =            8  plain     mixing
     Exchange-correlation= SLA  PW   PBX  PBC
                           (   1   4   3   4   0   0   0)

     celldm(1)=   7.728980  celldm(2)=   0.000000  celldm(3)=   0.000000
     celldm(4)=   0.000000  celldm(5)=   0.000000  celldm(6)=   0.000000

     crystal axes: (cart. coord. in units of alat)
               a(1) = (  -0.500000   0.000000   0.500000 )  
               a(2) = (   0.000000   0.500000   0.500000 )  
               a(3) = (  -0.500000   0.500000   0.000000 )  

     reciprocal axes: (cart. coord. in units 2 pi/alat)
               b(1) = ( -1.000000 -1.000000  1.000000 )  
               b(2) = (  1.000000  1.000000  1.000000 )  
               b(3) = ( -1.000000  1.000000 -1.000000 )  


     PseudoPot. # 1 for Ag read from file:
     /home/jdmin2003/qe-work/pseudo/Ag.pbe-n-kjpaw_psl.1.0.0.UPF
     MD5 check sum: 51099775af2a3182a6a1caffb86952a3
     Pseudo is Projector augmented-wave + core cor, Zval = 11.0
     Generated using &quot;atomic&quot; code by A. Dal Corso  v.6.2.2
     Shape of augmentation charge: PSQ
     Using radial grid of 1237 points,  6 beta functions with: 
                l(1) =   0
                l(2) =   0
                l(3) =   1
                l(4) =   1
                l(5) =   2
                l(6) =   2
     Q(r) pseudized with 0 coefficients 


     atomic species   valence    mass     pseudopotential
     Ag               11.00   107.86820     Ag( 1.00)

     48 Sym. Ops., with inversion, found



   Cartesian axes

     site n.     atom                  positions (alat units)
         1        Ag     tau(   1) = (   0.0000000   0.0000000   0.0000000  )

     number of k points=    72  Marzari-Vanderbilt smearing, width (Ry)=  0.0200
                       cart. coord. in units 2pi/alat
        k(    1) = (   0.0000000   0.0000000   0.0000000), wk =   0.0011574
        k(    2) = (  -0.0833333   0.0833333  -0.0833333), wk =   0.0092593
        k(    3) = (  -0.1666667   0.1666667  -0.1666667), wk =   0.0092593
        k(    4) = (  -0.2500000   0.2500000  -0.2500000), wk =   0.0092593
        k(    5) = (  -0.3333333   0.3333333  -0.3333333), wk =   0.0092593
        k(    6) = (  -0.4166667   0.4166667  -0.4166667), wk =   0.0092593
        k(    7) = (   0.5000000  -0.5000000   0.5000000), wk =   0.0046296
        k(    8) = (   0.0000000   0.1666667   0.0000000), wk =   0.0069444
        k(    9) = (  -0.0833333   0.2500000  -0.0833333), wk =   0.0277778
        k(   10) = (  -0.1666667   0.3333333  -0.1666667), wk =   0.0277778
        k(   11) = (  -0.2500000   0.4166667  -0.2500000), wk =   0.0277778
        k(   12) = (  -0.3333333   0.5000000  -0.3333333), wk =   0.0277778
        k(   13) = (   0.5833333  -0.4166667   0.5833333), wk =   0.0277778
        k(   14) = (   0.5000000  -0.3333333   0.5000000), wk =   0.0277778
        k(   15) = (   0.4166667  -0.2500000   0.4166667), wk =   0.0277778
        k(   16) = (   0.3333333  -0.1666667   0.3333333), wk =   0.0277778
        k(   17) = (   0.2500000  -0.0833333   0.2500000), wk =   0.0277778
        k(   18) = (   0.1666667  -0.0000000   0.1666667), wk =   0.0138889
        k(   19) = (   0.0000000   0.3333333   0.0000000), wk =   0.0069444
        k(   20) = (  -0.0833333   0.4166667  -0.0833333), wk =   0.0277778
        k(   21) = (  -0.1666667   0.5000000  -0.1666667), wk =   0.0277778
        k(   22) = (  -0.2500000   0.5833333  -0.2500000), wk =   0.0277778
        k(   23) = (   0.6666667  -0.3333333   0.6666667), wk =   0.0277778
        k(   24) = (   0.5833333  -0.2500000   0.5833333), wk =   0.0277778
        k(   25) = (   0.5000000  -0.1666667   0.5000000), wk =   0.0277778
        k(   26) = (   0.4166667  -0.0833333   0.4166667), wk =   0.0277778
        k(   27) = (   0.3333333   0.0000000   0.3333333), wk =   0.0138889
        k(   28) = (   0.0000000   0.5000000   0.0000000), wk =   0.0069444
        k(   29) = (  -0.0833333   0.5833333  -0.0833333), wk =   0.0277778
        k(   30) = (  -0.1666667   0.6666667  -0.1666667), wk =   0.0277778
        k(   31) = (   0.7500000  -0.2500000   0.7500000), wk =   0.0277778
        k(   32) = (   0.6666667  -0.1666667   0.6666667), wk =   0.0277778
        k(   33) = (   0.5833333  -0.0833333   0.5833333), wk =   0.0277778
        k(   34) = (   0.5000000   0.0000000   0.5000000), wk =   0.0138889
        k(   35) = (   0.0000000   0.6666667   0.0000000), wk =   0.0069444
        k(   36) = (  -0.0833333   0.7500000  -0.0833333), wk =   0.0277778
        k(   37) = (   0.8333333  -0.1666667   0.8333333), wk =   0.0277778
        k(   38) = (   0.7500000  -0.0833333   0.7500000), wk =   0.0277778
        k(   39) = (   0.6666667  -0.0000000   0.6666667), wk =   0.0138889
        k(   40) = (   0.0000000   0.8333333   0.0000000), wk =   0.0069444
        k(   41) = (   0.9166667  -0.0833333   0.9166667), wk =   0.0277778
        k(   42) = (   0.8333333   0.0000000   0.8333333), wk =   0.0138889
        k(   43) = (   0.0000000  -1.0000000   0.0000000), wk =   0.0034722
        k(   44) = (  -0.1666667   0.3333333   0.0000000), wk =   0.0277778
        k(   45) = (  -0.2500000   0.4166667  -0.0833333), wk =   0.0555556
        k(   46) = (  -0.3333333   0.5000000  -0.1666667), wk =   0.0555556
        k(   47) = (   0.5833333  -0.4166667   0.7500000), wk =   0.0555556
        k(   48) = (   0.5000000  -0.3333333   0.6666667), wk =   0.0277778
        k(   49) = (  -0.1666667   0.5000000   0.0000000), wk =   0.0277778
        k(   50) = (  -0.2500000   0.5833333  -0.0833333), wk =   0.0555556
        k(   51) = (   0.6666667  -0.3333333   0.8333333), wk =   0.0555556
        k(   52) = (   0.5833333  -0.2500000   0.7500000), wk =   0.0555556
        k(   53) = (   0.5000000  -0.1666667   0.6666667), wk =   0.0555556
        k(   54) = (   0.4166667  -0.0833333   0.5833333), wk =   0.0555556
        k(   55) = (   0.3333333   0.0000000   0.5000000), wk =   0.0277778
        k(   56) = (  -0.1666667   0.6666667  -0.0000000), wk =   0.0277778
        k(   57) = (   0.7500000  -0.2500000   0.9166667), wk =   0.0555556
        k(   58) = (   0.6666667  -0.1666667   0.8333333), wk =   0.0555556
        k(   59) = (   0.5833333  -0.0833333   0.7500000), wk =   0.0555556
        k(   60) = (   0.5000000   0.0000000   0.6666667), wk =   0.0277778
        k(   61) = (   0.8333333  -0.1666667   1.0000000), wk =   0.0277778
        k(   62) = (   0.7500000  -0.0833333   0.9166667), wk =   0.0555556
        k(   63) = (   0.6666667   0.0000000   0.8333333), wk =   0.0277778
        k(   64) = (  -0.1666667  -1.0000000  -0.0000000), wk =   0.0138889
        k(   65) = (   0.6666667  -0.3333333   1.0000000), wk =   0.0277778
        k(   66) = (   0.5833333  -0.2500000   0.9166667), wk =   0.0555556
        k(   67) = (   0.5000000  -0.1666667   0.8333333), wk =   0.0277778
        k(   68) = (   0.6666667  -0.1666667   1.0000000), wk =   0.0277778
        k(   69) = (   0.5833333  -0.0833333   0.9166667), wk =   0.0555556
        k(   70) = (   0.5000000   0.0000000   0.8333333), wk =   0.0277778
        k(   71) = (  -0.3333333  -1.0000000   0.0000000), wk =   0.0138889
        k(   72) = (  -0.5000000  -1.0000000   0.0000000), wk =   0.0069444

     Dense  grid:    13371 G-vectors     FFT dimensions: (  36,  36,  36)

     Smooth grid:     4693 G-vectors     FFT dimensions: (  24,  24,  24)

     Estimated max dynamical RAM per process >      28.31 MB

     Estimated total dynamical RAM >      56.62 MB

     Initial potential from superposition of free atoms

     starting charge      10.9996, renormalised to      11.0000
     Starting wfcs are    9 randomized atomic wfcs +    1 random wfcs
     Checking if some PAW data can be deallocated... 

     total cpu time spent up to now is        0.4 secs

     per-process dynamical memory:    17.4 Mb

     Self-consistent Calculation

     iteration #  1     ecut=    45.00 Ry     beta= 0.70
     Davidson diagonalization with overlap
     ethr =  1.00E-02,  avg # of iterations =  5.0

     Threshold (ethr) on eigenvalues was too large:
     Diagonalizing with lowered threshold

     Davidson diagonalization with overlap
     ethr =  2.46E-05,  avg # of iterations =  5.0

     total cpu time spent up to now is        1.1 secs

     total energy              =    -355.29824361 Ry
     estimated scf accuracy    <       0.00313249 Ry

     iteration #  2     ecut=    45.00 Ry     beta= 0.70
     Davidson diagonalization with overlap
     ethr =  2.85E-05,  avg # of iterations =  2.0

     total cpu time spent up to now is        1.4 secs

     total energy              =    -355.29908517 Ry
     estimated scf accuracy    <       0.00212301 Ry

     iteration #  3     ecut=    45.00 Ry     beta= 0.70
     Davidson diagonalization with overlap
     ethr =  1.93E-05,  avg # of iterations =  1.6

     total cpu time spent up to now is        1.6 secs

     total energy              =    -355.29951058 Ry
     estimated scf accuracy    <       0.00001609 Ry

     iteration #  4     ecut=    45.00 Ry     beta= 0.70
     Davidson diagonalization with overlap
     ethr =  1.46E-07,  avg # of iterations =  2.6

     total cpu time spent up to now is        1.9 secs

     total energy              =    -355.29951332 Ry
     estimated scf accuracy    <       0.00000013 Ry

     iteration #  5     ecut=    45.00 Ry     beta= 0.70
     Davidson diagonalization with overlap
     ethr =  1.19E-09,  avg # of iterations =  3.7

     total cpu time spent up to now is        2.3 secs

     End of self-consistent calculation

          k = 0.0000 0.0000 0.0000 (   609 PWs)   bands (ev):

     5.0285   8.0405   8.0405   8.0405   9.0742   9.0742  29.7238  32.9911
    32.9911  32.9911

          k =-0.0833 0.0833-0.0833 (   576 PWs)   bands (ev):

     5.2430   7.9938   8.0996   8.0996   9.0540   9.0540  29.5714  31.2685
    32.9742  32.9742

          k =-0.1667 0.1667-0.1667 (   582 PWs)   bands (ev):

     5.8226   7.9374   8.2171   8.2171   9.0491   9.0491  27.2698  30.4733
    32.8613  32.8613

          k =-0.2500 0.2500-0.2500 (   580 PWs)   bands (ev):

     6.4199   8.2419   8.2419   8.2641   9.2014   9.2014  23.9895  30.1216
    32.5072  32.5072

          k =-0.3333 0.3333-0.3333 (   601 PWs)   bands (ev):

     6.5516   8.1524   8.1524   9.4804   9.4964   9.4964  20.7768  29.4845
    31.8739  31.8739

          k =-0.4167 0.4167-0.4167 (   589 PWs)   bands (ev):

     6.4798   8.0565   8.0565   9.7637   9.7637  11.2237  17.9273  28.9583
    31.2499  31.2499

          k = 0.5000-0.5000 0.5000 (   580 PWs)   bands (ev):

     6.4394   8.0184   8.0184   9.8693   9.8693  12.3948  16.3948  28.7646
    30.9962  30.9962

          k = 0.0000 0.1667 0.0000 (   585 PWs)   bands (ev):

     5.3150   7.9289   8.1465   8.1465   8.9652   9.1231  29.7263  31.9065
    32.0182  32.0182

          k =-0.0833 0.2500-0.0833 (   582 PWs)   bands (ev):

     5.7803   7.8147   8.2744   8.2760   8.8890   9.1736  28.4620  30.2639
    31.2096  32.9264

          k =-0.1667 0.3333-0.1667 (   581 PWs)   bands (ev):

     6.4256   7.8437   8.2956   8.3513   9.0881   9.3117  25.2333  29.9661
    30.5437  33.5819

          k =-0.2500 0.4167-0.2500 (   592 PWs)   bands (ev):

     6.6858   8.1374   8.2985   8.4356   9.5679   9.8066  21.9554  29.4361
    30.0459  32.1596

          k =-0.3333 0.5000-0.3333 (   596 PWs)   bands (ev):

     6.6249   8.0086   8.1966   9.0837   9.8021  11.2024  18.9254  28.8522
    29.8332  30.8277

          k = 0.5833-0.4167 0.5833 (   589 PWs)   bands (ev):

     6.5630   7.9452   8.1257   9.4354   9.8764  12.7840  16.6615  28.4077
    30.0106  30.0750

          k = 0.5000-0.3333 0.5000 (   590 PWs)   bands (ev):

     6.5823   7.9708   8.1245   9.4629   9.7372  12.3502  17.2547  28.1686
    29.8752  30.8920

          k = 0.4167-0.2500 0.4167 (   590 PWs)   bands (ev):

     6.6687   8.0660   8.1976   9.0864   9.4295  10.7779  19.9029  28.1928
    30.3860  32.2911

          k = 0.3333-0.1667 0.3333 (   585 PWs)   bands (ev):

     6.6768   8.0996   8.3076   8.3837   9.0753   9.7951  23.0416  28.4641
    31.3704  34.1361

          k = 0.2500-0.0833 0.2500 (   576 PWs)   bands (ev):

     6.2259   7.8263   8.3053   8.3229   8.8799   9.3263  26.3409  28.8852
    32.2172  34.4779

          k = 0.1667-0.0000 0.1667 (   578 PWs)   bands (ev):

     5.5853   7.8973   8.1831   8.2172   8.9421   9.1316  29.1416  29.6822
    32.1015  33.9903

          k = 0.0000 0.3333 0.0000 (   572 PWs)   bands (ev):

     6.0918   7.6330   8.4515   8.4515   8.7476   9.2583  29.7408  29.8743
    29.8744  30.3997

          k =-0.0833 0.4167-0.0833 (   580 PWs)   bands (ev):

     6.6252   7.4866   8.4216   8.6093   9.0571   9.3833  26.7196  28.8640
    29.6817  31.1014

          k =-0.1667 0.5000-0.1667 (   591 PWs)   bands (ev):

     6.9327   7.6435   8.2297   8.6165   9.6183  10.0079  23.4041  28.2125
    28.8523  30.4651

          k =-0.2500 0.5833-0.2500 (   586 PWs)   bands (ev):

     6.8828   7.8546   8.3337   8.5257   9.8394  11.5133  20.2503  27.6163
    27.9996  29.8757

          k = 0.6667-0.3333 0.6667 (   588 PWs)   bands (ev):

     6.8392   7.7842   8.4305   8.6963   9.8965  13.3921  17.5162  26.4782
    28.3251  29.5769

          k = 0.5833-0.2500 0.5833 (   586 PWs)   bands (ev):

     6.8761   7.7808   8.3853   8.8424   9.7344  13.9691  16.8918  25.6695
    29.2438  29.6244

          k = 0.5000-0.1667 0.5000 (   589 PWs)   bands (ev):

     6.9925   7.8668   8.4141   8.6404   9.3965  12.2881  19.3604  25.2834
    30.0999  30.7202

          k = 0.4167-0.0833 0.4167 (   592 PWs)   bands (ev):

     7.1287   7.8617   8.2515   8.5163   8.9861  10.8602  22.4121  25.3187
    31.0507  32.6291

          k = 0.3333 0.0000 0.3333 (   580 PWs)   bands (ev):

     6.8621   7.6624   8.2860   8.5696   8.7141   9.9040  25.5170  25.8555
    32.4315  33.5486

          k = 0.0000 0.5000 0.0000 (   576 PWs)   bands (ev):

     6.8304   7.2493   8.9142   8.9142   9.0250   9.4463  27.5440  27.5440
    28.6189  29.7737

          k =-0.0833 0.5833-0.0833 (   587 PWs)   bands (ev):

     6.9462   7.1315   8.8022   9.0449   9.6321  10.1305  24.9612  26.6575
    27.0677  29.9781

          k =-0.1667 0.6667-0.1667 (   589 PWs)   bands (ev):

     6.9028   7.2772   8.6412   8.9851   9.8625  11.7748  21.8402  25.4349
    26.2969  29.8060

          k = 0.7500-0.2500 0.7500 (   584 PWs)   bands (ev):

     6.9136   7.4774   8.5157   8.8774   9.9263  13.8146  18.9388  24.0478
    26.5450  29.6593

          k = 0.6667-0.1667 0.6667 (   583 PWs)   bands (ev):

     7.0383   7.6366   8.4045   8.7855   9.7636  15.6937  16.9054  22.9871
    27.4182  29.6549

          k = 0.5833-0.0833 0.5833 (   589 PWs)   bands (ev):

     7.2575   7.7589   8.2117   8.7346   9.4344  14.0104  19.1533  22.3402
    28.8375  29.8899

          k = 0.5000 0.0000 0.5000 (   590 PWs)   bands (ev):

     7.4778   7.7060   8.0934   8.6965   9.0887  12.2633  22.0856  22.2065
    30.4005  30.6474

          k = 0.0000 0.6667 0.0000 (   576 PWs)   bands (ev):

     6.7814   6.8867   9.4464   9.4464   9.6391  10.6211  25.0876  25.5245
    25.5245  29.8166

          k =-0.0833 0.7500-0.0833 (   593 PWs)   bands (ev):

     6.7065   6.8177   9.4112   9.4710   9.8630  12.1004  23.1616  23.6206
    24.9481  29.8644

          k = 0.8333-0.1667 0.8333 (   594 PWs)   bands (ev):

     6.7186   6.9706   9.1198   9.3637   9.9635  14.0917  20.6712  21.9220
    25.0329  29.7849

          k = 0.7500-0.0833 0.7500 (   587 PWs)   bands (ev):

     6.8493   7.2772   8.7199   9.2256   9.8333  16.3824  18.1923  20.7485
    25.7908  29.7267

          k = 0.6667-0.0000 0.6667 (   598 PWs)   bands (ev):

     7.0785   7.6553   8.2698   9.0323   9.5931  15.9595  18.6246  20.3450
    27.1183  29.7519

          k = 0.0000 0.8333 0.0000 (   600 PWs)   bands (ev):

     6.5132   6.6330   9.7832   9.8954   9.8954  12.8962  21.4830  24.1346
    24.1346  29.8523

          k = 0.9167-0.0833 0.9167 (   599 PWs)   bands (ev):

     6.4993   6.6394   9.7284   9.7888  10.0205  14.3090  20.1408  22.6667
    24.0024  29.8766

          k = 0.8333 0.0000 0.8333 (   598 PWs)   bands (ev):

     6.6286   6.8680   9.3161   9.5609   9.9495  15.7818  19.5568  20.5084
    24.5892  29.8101

          k = 0.0000-1.0000 0.0000 (   588 PWs)   bands (ev):

     6.3985   6.5427   9.8368  10.0766  10.0766  14.4157  19.5159  23.6331
    23.6331  29.8661

          k =-0.1667 0.3333 0.0000 (   579 PWs)   bands (ev):

     6.3117   7.6649   8.3359   8.4534   8.8529   9.3550  27.6508  27.7918
    31.8552  32.2942

          k =-0.2500 0.4167-0.0833 (   588 PWs)   bands (ev):

     6.8712   7.6937   8.2022   8.5542   9.0664   9.8744  24.4058  27.1830
    30.8817  32.5930

          k =-0.3333 0.5000-0.1667 (   592 PWs)   bands (ev):

     6.9184   8.0037   8.2169   8.5114   9.4620  10.9135  21.1821  26.8914
    29.5020  31.9424

          k = 0.5833-0.4167 0.7500 (   590 PWs)   bands (ev):

     6.8187   7.8588   8.3400   8.8094   9.7382  12.5250  18.2681  26.9449
    28.3457  31.1330

          k = 0.5000-0.3333 0.6667 (   586 PWs)   bands (ev):

     6.7761   7.8046   8.3131   8.9944   9.8255  13.8449  16.5250  27.2614
    27.6419  30.8184

          k =-0.1667 0.5000 0.0000 (   589 PWs)   bands (ev):

     7.0168   7.3244   8.3428   8.9090   9.2291   9.8925  25.8444  26.0799
    29.0413  31.4116

          k =-0.2500 0.5833-0.0833 (   592 PWs)   bands (ev):

     7.0960   7.4807   8.1940   8.9438   9.5273  11.0899  22.7193  25.5416
    27.4075  31.5830

          k = 0.6667-0.3333 0.8333 (   590 PWs)   bands (ev):

     7.0342   7.6510   8.2189   8.8252   9.7811  12.8215  19.6766  25.5353
    25.9766  31.2883

          k = 0.5833-0.2500 0.7500 (   585 PWs)   bands (ev):

     7.0582   7.6188   8.4164   8.6935   9.8226  14.8202  17.1250  24.8247
    26.0288  31.2116

          k = 0.5000-0.1667 0.6667 (   588 PWs)   bands (ev):

     7.1581   7.6345   8.3734   8.6777   9.6647  14.2172  17.9434  24.0713
    26.9352  31.5830

          k = 0.4167-0.0833 0.5833 (   588 PWs)   bands (ev):

     7.3021   7.7656   8.0045   8.7930   9.3461  12.3706  20.7679  23.7671
    28.1466  32.5119

          k = 0.3333 0.0000 0.5000 (   586 PWs)   bands (ev):

     7.4149   7.5152   8.0038   8.9283   8.9303  10.9149  23.7868  24.0256
    29.5574  33.9371

          k =-0.1667 0.6667-0.0000 (   591 PWs)   bands (ev):

     6.9529   6.9958   8.7995   9.4412   9.5944  11.3502  24.2336  24.4072
    25.2791  31.1018

          k = 0.7500-0.2500 0.9167 (   591 PWs)   bands (ev):

     6.9189   7.1299   8.6321   9.3450   9.8168  13.1242  21.3670  23.6347
    24.2659  31.2272

          k = 0.6667-0.1667 0.8333 (   588 PWs)   bands (ev):

     6.9845   7.3641   8.4321   9.1331   9.8801  15.2881  18.6371  22.3672
    24.6523  31.2172

          k = 0.5833-0.0833 0.7500 (   589 PWs)   bands (ev):

     7.1697   7.5990   8.1657   8.9822   9.7258  16.1402  17.8773  21.4241
    25.5527  31.4478

          k = 0.5000 0.0000 0.6667 (   594 PWs)   bands (ev):

     7.4302   7.7814   7.8104   8.9406   9.4590  14.1115  20.4140  21.1343
    26.7761  31.9922

          k = 0.8333-0.1667 1.0000 (   595 PWs)   bands (ev):

     6.6686   6.7640   9.3012   9.7334   9.8937  13.5632  21.5727  23.1816
    23.2354  30.9459

          k = 0.7500-0.0833 0.9167 (   590 PWs)   bands (ev):

     6.7444   6.9373   9.0210   9.4953   9.9947  15.4611  20.1742  20.8960
    23.4899  31.1395

          k = 0.6667 0.0000 0.8333 (   597 PWs)   bands (ev):

     6.9229   7.2814   8.5667   9.2475   9.8900  17.2977  18.2549  19.9769
    24.3331  31.2369

          k =-0.1667-1.0000-0.0000 (   592 PWs)   bands (ev):

     6.5493   6.6810   9.5834   9.6874  10.0768  15.1465  19.5573  22.7277
    22.8062  30.9003

          k = 0.6667-0.3333 1.0000 (   583 PWs)   bands (ev):

     7.3111   7.3856   8.0354   9.2715   9.4347  12.6120  22.4237  22.4479
    25.8241  33.6375

          k = 0.5833-0.2500 0.9167 (   586 PWs)   bands (ev):

     7.3217   7.4844   7.9922   9.0746   9.7234  14.5154  19.5096  22.6194
    24.4857  33.3575

          k = 0.5000-0.1667 0.8333 (   584 PWs)   bands (ev):

     7.3716   7.4245   8.0742   8.9530   9.8323  16.4713  17.2051  23.0463
    23.6677  33.1486

          k = 0.6667-0.1667 1.0000 (   582 PWs)   bands (ev):

     7.0461   7.1519   8.4301   9.3663   9.8892  14.9272  21.2767  21.3644
    22.4741  33.3243

          k = 0.5833-0.0833 0.9167 (   593 PWs)   bands (ev):

     7.1250   7.4266   8.1463   9.1453   9.9855  17.0711  18.7852  20.9132
    22.2681  33.7878

          k = 0.5000 0.0000 0.8333 (   588 PWs)   bands (ev):

     7.2621   7.7224   7.7748   9.0739   9.8846  16.5054  19.2179  20.4990
    23.2027  34.0677

          k =-0.3333-1.0000 0.0000 (   596 PWs)   bands (ev):

     6.9130   7.0929   8.6454   9.3232  10.0773  16.7815  19.6997  20.8508
    21.5671  33.2144

          k =-0.5000-1.0000 0.0000 (   604 PWs)   bands (ev):

     7.1496   7.7632   7.7632   9.0847  10.0774  18.7695  18.7695  19.8480
    20.9901  36.1666

     the Fermi energy is    12.7262 ev

!    total energy              =    -355.29951350 Ry
     total all-electron energy =    -10632.265567 Ry
     estimated scf accuracy    <          2.2E-09 Ry
     smearing contrib. (-TS)   =       0.00014632 Ry
     internal energy E=F+TS    =    -355.29965982 Ry

     The total energy is F=E-TS. E is the sum of the following terms:
     one-electron contribution =       1.43954677 Ry
     hartree contribution      =      14.70588412 Ry
     xc contribution           =     -22.35160828 Ry
     ewald contribution        =     -71.77768887 Ry
     one-center paw contrib.   =    -277.31579355 Ry

     convergence has been achieved in   5 iterations

     Writing all to output data dir ./tmp_k12/ag_k12.save/ :
     XML data file, charge density, pseudopotentials, collected wavefunctions

     init_run     :      0.34s CPU      0.39s WALL (       1 calls)
     electrons    :      1.63s CPU      1.83s WALL (       1 calls)

     Called by init_run:
     wfcinit      :      0.06s CPU      0.07s WALL (       1 calls)
     potinit      :      0.12s CPU      0.13s WALL (       1 calls)
     hinit0       :      0.15s CPU      0.15s WALL (       1 calls)

     Called by electrons:
     c_bands      :      1.13s CPU      1.27s WALL (       6 calls)
     sum_band     :      0.20s CPU      0.24s WALL (       6 calls)
     v_of_rho     :      0.02s CPU      0.02s WALL (       6 calls)
     newd         :      0.05s CPU      0.06s WALL (       6 calls)
     PAW_pot      :      0.29s CPU      0.31s WALL (       6 calls)
     mix_rho      :      0.00s CPU      0.00s WALL (       6 calls)

     Called by c_bands:
     init_us_2    :      0.03s CPU      0.03s WALL (     936 calls)
     cegterg      :      1.09s CPU      1.22s WALL (     432 calls)

     Called by *egterg:
     cdiaghg      :      0.08s CPU      0.09s WALL (    1786 calls)
     h_psi        :      0.79s CPU      0.88s WALL (    1930 calls)
     s_psi        :      0.05s CPU      0.05s WALL (    1930 calls)
     g_psi        :      0.01s CPU      0.01s WALL (    1426 calls)

     Called by h_psi:
     h_psi:calbec :      0.05s CPU      0.06s WALL (    1930 calls)
     vloc_psi     :      0.68s CPU      0.76s WALL (    1930 calls)
                                        0.00s GPU  (    1930 calls)
     add_vuspsi   :      0.05s CPU      0.05s WALL (    1930 calls)

     General routines
     calbec       :      0.06s CPU      0.07s WALL (    2362 calls)
     fft          :      0.09s CPU      0.09s WALL (      77 calls)
     ffts         :      0.06s CPU      0.06s WALL (      12 calls)
     fftw         :      0.70s CPU      0.79s WALL (   28894 calls)
     interpolate  :      0.06s CPU      0.06s WALL (       6 calls)

     Parallel routines

     PWSCF        :      2.03s CPU      2.29s WALL


   This run was terminated on:  20:34:56   8Sep2026            

=------------------------------------------------------------------------------=
   JOB DONE.
=------------------------------------------------------------------------------=
